generated by phonopy
   1.0
     30 0 0
     0 30 0
     0 0 30
C
 96
Direct
	0.38	0.65	0.22
	0.34	0.50	0.18
	0.38	0.35	0.22
	0.46	0.23	0.30
	0.46	0.33	0.20
	0.46	0.57	0.09
	0.46	0.43	0.09
	0.54	0.33	0.20
	0.31	0.38	0.25
	0.39	0.46	0.13
	0.50	0.53	0.04
	0.61	0.46	0.13
	0.20	0.46	0.34
	0.30	0.54	0.23
	0.42	0.61	0.15
	0.58	0.61	0.15
	0.35	0.62	0.22
	0.33	0.46	0.20
	0.38	0.31	0.25
	0.46	0.20	0.34
	0.50	0.34	0.18
	0.43	0.54	0.09
	0.46	0.39	0.13
	0.54	0.30	0.23
	0.35	0.38	0.22
	0.43	0.46	0.09
	0.53	0.50	0.04
	0.61	0.42	0.15
	0.23	0.46	0.30
	0.33	0.54	0.20
	0.46	0.61	0.13
	0.61	0.58	0.15
	0.35	0.58	0.19
	0.35	0.42	0.19
	0.42	0.29	0.26
	0.50	0.18	0.35
	0.50	0.37	0.14
	0.44	0.50	0.07
	0.58	0.29	0.26
	0.56	0.50	0.07
	0.65	0.42	0.19
	0.25	0.50	0.28
	0.50	0.63	0.14
	0.65	0.58	0.19
	0.42	0.25	0.29
	0.50	0.15	0.39
	0.58	0.25	0.29
	0.39	0.42	0.15
	0.47	0.50	0.04
	0.57	0.46	0.09
	0.65	0.38	0.22
	0.28	0.50	0.25
	0.39	0.58	0.15
	0.54	0.61	0.13
	0.67	0.54	0.20
	0.46	0.67	0.20
	0.39	0.54	0.13
	0.42	0.39	0.15
	0.50	0.28	0.25
	0.50	0.47	0.04
	0.58	0.39	0.15
	0.25	0.42	0.29
	0.61	0.54	0.13
	0.15	0.50	0.39
	0.25	0.58	0.29
	0.54	0.67	0.20
	0.42	0.65	0.19
	0.37	0.50	0.14
	0.42	0.35	0.19
	0.50	0.25	0.28
	0.50	0.44	0.07
	0.58	0.35	0.19
	0.29	0.42	0.26
	0.50	0.56	0.07
	0.63	0.50	0.14
	0.18	0.50	0.35
	0.29	0.58	0.26
	0.58	0.65	0.19
	0.54	0.23	0.30
	0.54	0.43	0.09
	0.62	0.35	0.22
	0.30	0.46	0.23
	0.54	0.57	0.09
	0.66	0.50	0.18
	0.20	0.54	0.34
	0.31	0.62	0.25
	0.62	0.65	0.22
	0.46	0.30	0.23
	0.54	0.20	0.34
	0.54	0.39	0.13
	0.62	0.31	0.25
	0.57	0.54	0.09
	0.67	0.46	0.20
	0.23	0.54	0.30
	0.50	0.66	0.18
	0.65	0.62	0.22
