generated by phonopy
   1.0
     100  0 0
     0 100 0
     0 0 100
C
1145
Direct
	0.418	0.591	0.137
	0.402	0.548	0.122
	0.396	0.499	0.116
	0.402	0.451	0.122
	0.464	0.605	0.124
	0.441	0.568	0.101
	0.426	0.524	0.086
	0.427	0.475	0.087
	0.488	0.392	0.122
	0.488	0.580	0.090
	0.465	0.545	0.064
	0.453	0.499	0.053
	0.440	0.401	0.130
	0.464	0.425	0.094
	0.488	0.449	0.058
	0.488	0.521	0.027
	0.408	0.581	0.137
	0.394	0.536	0.125
	0.392	0.487	0.122
	0.401	0.439	0.130
	0.452	0.598	0.122
	0.431	0.558	0.101
	0.420	0.511	0.090
	0.424	0.463	0.094
	0.500	0.396	0.116
	0.476	0.573	0.086
	0.455	0.535	0.064
	0.449	0.487	0.059
	0.452	0.402	0.122
	0.475	0.427	0.086
	0.500	0.453	0.052
	0.478	0.511	0.027
	0.409	0.570	0.129
	0.397	0.524	0.118
	0.398	0.475	0.118
	0.410	0.428	0.129
	0.452	0.588	0.112
	0.432	0.547	0.092
	0.424	0.499	0.085
	0.433	0.452	0.092
	0.500	0.406	0.105
	0.476	0.563	0.076
	0.456	0.523	0.056
	0.457	0.475	0.056
	0.452	0.413	0.112
	0.476	0.437	0.076
	0.500	0.463	0.042
	0.481	0.499	0.021
	0.400	0.559	0.130
	0.392	0.511	0.122
	0.395	0.463	0.125
	0.409	0.417	0.138
	0.441	0.579	0.110
	0.424	0.536	0.094
	0.420	0.487	0.090
	0.432	0.440	0.101
	0.488	0.589	0.101
	0.464	0.555	0.074
	0.449	0.511	0.059
	0.455	0.464	0.064
	0.463	0.415	0.104
	0.488	0.440	0.069
	0.488	0.531	0.038
	0.479	0.487	0.028
	0.440	0.599	0.130
	0.421	0.559	0.110
	0.411	0.511	0.101
	0.414	0.463	0.104
	0.488	0.608	0.122
	0.464	0.576	0.094
	0.444	0.535	0.074
	0.439	0.487	0.069
	0.463	0.395	0.125
	0.488	0.420	0.090
	0.488	0.551	0.058
	0.468	0.511	0.038
	0.418	0.409	0.137
	0.441	0.432	0.101
	0.464	0.455	0.064
	0.488	0.479	0.027
	0.429	0.590	0.128
	0.412	0.547	0.112
	0.405	0.499	0.106
	0.412	0.451	0.112
	0.476	0.602	0.117
	0.452	0.567	0.092
	0.436	0.524	0.076
	0.437	0.475	0.076
	0.475	0.398	0.118
	0.500	0.425	0.084
	0.476	0.543	0.055
	0.462	0.499	0.042
	0.429	0.410	0.129
	0.452	0.433	0.092
	0.476	0.457	0.056
	0.500	0.482	0.020
	0.430	0.580	0.119
	0.414	0.536	0.104
	0.411	0.487	0.101
	0.421	0.440	0.111
	0.476	0.593	0.107
	0.453	0.557	0.082
	0.439	0.511	0.069
	0.445	0.463	0.074
	0.475	0.407	0.107
	0.500	0.434	0.074
	0.476	0.533	0.046
	0.469	0.487	0.038
	0.429	0.420	0.119
	0.453	0.444	0.082
	0.476	0.467	0.046
	0.500	0.491	0.010
	0.420	0.570	0.119
	0.407	0.524	0.107
	0.407	0.475	0.107
	0.420	0.429	0.120
	0.464	0.585	0.104
	0.443	0.546	0.082
	0.434	0.499	0.074
	0.443	0.452	0.083
	0.488	0.411	0.101
	0.488	0.560	0.069
	0.466	0.523	0.046
	0.467	0.475	0.046
	0.441	0.421	0.110
	0.464	0.445	0.074
	0.488	0.469	0.038
	0.491	0.499	0.010
	0.397	0.418	0.147
	0.421	0.441	0.110
	0.444	0.465	0.074
	0.468	0.489	0.038
	0.360	0.440	0.170
	0.385	0.464	0.135
	0.410	0.489	0.101
	0.439	0.513	0.069
	0.327	0.464	0.198
	0.353	0.489	0.165
	0.382	0.513	0.133
	0.414	0.537	0.105
	0.296	0.489	0.228
	0.325	0.513	0.196
	0.356	0.538	0.167
	0.390	0.561	0.140
	0.408	0.419	0.137
	0.431	0.442	0.101
	0.454	0.465	0.064
	0.478	0.489	0.028
	0.370	0.440	0.160
	0.394	0.464	0.125
	0.420	0.489	0.090
	0.449	0.513	0.059
	0.336	0.464	0.188
	0.363	0.489	0.154
	0.391	0.513	0.122
	0.424	0.537	0.094
	0.306	0.489	0.218
	0.334	0.513	0.186
	0.365	0.538	0.156
	0.400	0.561	0.130
	0.409	0.430	0.129
	0.432	0.453	0.092
	0.456	0.477	0.056
	0.372	0.452	0.153
	0.397	0.476	0.118
	0.456	0.525	0.056
	0.340	0.476	0.181
	0.367	0.501	0.148
	0.397	0.525	0.118
	0.433	0.548	0.093
	0.310	0.501	0.212
	0.340	0.526	0.181
	0.372	0.550	0.153
	0.409	0.572	0.129
	0.419	0.430	0.119
	0.443	0.454	0.082
	0.466	0.477	0.046
	0.382	0.452	0.142
	0.407	0.476	0.107
	0.434	0.501	0.074
	0.467	0.525	0.046
	0.349	0.476	0.171
	0.377	0.501	0.138
	0.407	0.525	0.108
	0.443	0.548	0.083
	0.320	0.501	0.202
	0.349	0.526	0.171
	0.382	0.550	0.143
	0.420	0.571	0.120
	0.378	0.429	0.158
	0.402	0.452	0.122
	0.426	0.476	0.086
	0.343	0.452	0.184
	0.368	0.476	0.149
	0.427	0.525	0.087
	0.311	0.476	0.213
	0.339	0.501	0.180
	0.369	0.526	0.150
	0.402	0.549	0.122
	0.282	0.501	0.244
	0.311	0.526	0.213
	0.343	0.550	0.184
	0.378	0.573	0.159
	0.388	0.429	0.148
	0.412	0.453	0.112
	0.436	0.477	0.076
	0.352	0.452	0.173
	0.378	0.476	0.139
	0.436	0.525	0.076
	0.321	0.476	0.202
	0.348	0.501	0.170
	0.378	0.525	0.139
	0.412	0.549	0.112
	0.291	0.501	0.233
	0.321	0.526	0.202
	0.353	0.550	0.174
	0.389	0.573	0.149
	0.390	0.441	0.140
	0.414	0.464	0.104
	0.439	0.489	0.069
	0.468	0.513	0.038
	0.355	0.464	0.167
	0.382	0.489	0.133
	0.411	0.513	0.101
	0.445	0.537	0.074
	0.325	0.489	0.196
	0.353	0.513	0.165
	0.385	0.538	0.135
	0.421	0.560	0.111
	0.296	0.513	0.228
	0.327	0.538	0.198
	0.360	0.562	0.171
	0.398	0.583	0.148
	0.400	0.441	0.130
	0.424	0.465	0.094
	0.449	0.489	0.059
	0.479	0.513	0.028
	0.365	0.464	0.156
	0.391	0.489	0.122
	0.420	0.513	0.091
	0.455	0.536	0.065
	0.334	0.489	0.186
	0.363	0.513	0.154
	0.395	0.538	0.125
	0.432	0.560	0.101
	0.306	0.513	0.218
	0.336	0.538	0.188
	0.370	0.561	0.161
	0.408	0.583	0.138
	0.268	0.513	0.260
	0.298	0.538	0.230
	0.331	0.562	0.202
	0.367	0.585	0.177
	0.241	0.538	0.293
	0.272	0.562	0.264
	0.306	0.586	0.237
	0.343	0.608	0.213
	0.214	0.562	0.327
	0.247	0.586	0.299
	0.282	0.610	0.273
	0.319	0.632	0.250
	0.189	0.587	0.361
	0.222	0.610	0.334
	0.258	0.633	0.309
	0.296	0.655	0.286
	0.277	0.513	0.250
	0.308	0.538	0.219
	0.340	0.562	0.191
	0.377	0.584	0.167
	0.250	0.538	0.283
	0.282	0.562	0.254
	0.316	0.586	0.227
	0.353	0.608	0.203
	0.224	0.562	0.317
	0.257	0.586	0.289
	0.292	0.610	0.263
	0.330	0.631	0.240
	0.198	0.587	0.351
	0.232	0.610	0.324
	0.268	0.633	0.299
	0.307	0.655	0.277
	0.283	0.526	0.245
	0.314	0.550	0.215
	0.348	0.574	0.189
	0.386	0.595	0.166
	0.256	0.550	0.278
	0.289	0.574	0.250
	0.324	0.597	0.225
	0.363	0.618	0.203
	0.230	0.574	0.313
	0.264	0.598	0.286
	0.300	0.621	0.261
	0.339	0.642	0.239
	0.205	0.599	0.348
	0.240	0.622	0.321
	0.277	0.644	0.297
	0.316	0.665	0.276
	0.292	0.526	0.234
	0.324	0.550	0.205
	0.358	0.573	0.179
	0.397	0.595	0.157
	0.266	0.550	0.268
	0.299	0.574	0.240
	0.334	0.597	0.215
	0.373	0.618	0.193
	0.240	0.574	0.302
	0.274	0.598	0.275
	0.311	0.621	0.251
	0.350	0.641	0.230
	0.215	0.599	0.337
	0.250	0.622	0.311
	0.287	0.644	0.288
	0.327	0.664	0.267
	0.254	0.526	0.277
	0.285	0.550	0.247
	0.318	0.574	0.219
	0.355	0.596	0.195
	0.227	0.550	0.310
	0.259	0.574	0.281
	0.294	0.598	0.255
	0.331	0.620	0.231
	0.201	0.575	0.344
	0.235	0.598	0.317
	0.270	0.622	0.291
	0.308	0.643	0.268
	0.176	0.599	0.379
	0.210	0.622	0.352
	0.246	0.645	0.327
	0.284	0.667	0.305
	0.264	0.526	0.266
	0.295	0.550	0.236
	0.328	0.574	0.209
	0.365	0.596	0.185
	0.237	0.550	0.299
	0.269	0.574	0.271
	0.304	0.598	0.245
	0.342	0.619	0.222
	0.211	0.574	0.334
	0.244	0.598	0.306
	0.280	0.621	0.281
	0.318	0.643	0.258
	0.186	0.599	0.368
	0.220	0.622	0.342
	0.256	0.645	0.317
	0.295	0.666	0.295
	0.269	0.538	0.261
	0.301	0.562	0.233
	0.336	0.585	0.207
	0.374	0.607	0.184
	0.243	0.562	0.296
	0.276	0.586	0.268
	0.312	0.609	0.243
	0.351	0.630	0.221
	0.218	0.587	0.330
	0.252	0.610	0.304
	0.288	0.633	0.279
	0.328	0.653	0.258
	0.193	0.611	0.365
	0.228	0.634	0.339
	0.265	0.656	0.316
	0.305	0.677	0.295
	0.279	0.538	0.251
	0.311	0.562	0.222
	0.346	0.585	0.197
	0.385	0.606	0.175
	0.253	0.562	0.285
	0.286	0.586	0.258
	0.322	0.609	0.233
	0.362	0.629	0.212
	0.227	0.587	0.320
	0.262	0.610	0.293
	0.299	0.632	0.269
	0.339	0.653	0.248
	0.202	0.611	0.355
	0.238	0.634	0.329
	0.275	0.656	0.306
	0.315	0.676	0.285
	0.419	0.407	0.138
	0.440	0.369	0.161
	0.464	0.336	0.188
	0.489	0.305	0.218
	0.442	0.430	0.101
	0.464	0.394	0.125
	0.489	0.362	0.155
	0.513	0.334	0.186
	0.465	0.454	0.065
	0.489	0.419	0.091
	0.513	0.391	0.123
	0.538	0.365	0.157
	0.489	0.477	0.028
	0.513	0.448	0.060
	0.537	0.424	0.095
	0.561	0.400	0.131
	0.418	0.397	0.148
	0.440	0.359	0.171
	0.464	0.326	0.199
	0.489	0.296	0.229
	0.441	0.420	0.111
	0.464	0.384	0.136
	0.489	0.353	0.165
	0.513	0.324	0.197
	0.465	0.443	0.074
	0.489	0.410	0.102
	0.513	0.381	0.133
	0.538	0.355	0.167
	0.489	0.468	0.038
	0.513	0.439	0.070
	0.537	0.414	0.105
	0.561	0.390	0.141
	0.429	0.387	0.149
	0.452	0.352	0.174
	0.476	0.320	0.203
	0.501	0.291	0.234
	0.453	0.411	0.112
	0.476	0.377	0.140
	0.501	0.348	0.170
	0.526	0.320	0.203
	0.477	0.435	0.077
	0.501	0.405	0.107
	0.526	0.378	0.140
	0.550	0.352	0.174
	0.501	0.462	0.043
	0.525	0.436	0.077
	0.549	0.412	0.113
	0.573	0.388	0.149
	0.429	0.377	0.159
	0.452	0.342	0.184
	0.476	0.311	0.214
	0.501	0.281	0.245
	0.452	0.401	0.123
	0.476	0.368	0.150
	0.501	0.338	0.181
	0.526	0.311	0.214
	0.476	0.426	0.087
	0.501	0.395	0.117
	0.526	0.368	0.150
	0.550	0.342	0.185
	0.501	0.452	0.053
	0.525	0.426	0.087
	0.549	0.402	0.123
	0.573	0.378	0.159
	0.430	0.419	0.120
	0.452	0.381	0.143
	0.476	0.349	0.171
	0.501	0.319	0.202
	0.454	0.442	0.083
	0.476	0.406	0.108
	0.501	0.376	0.138
	0.526	0.349	0.171
	0.477	0.466	0.046
	0.501	0.433	0.075
	0.525	0.407	0.108
	0.550	0.382	0.143
	0.501	0.490	0.011
	0.525	0.466	0.047
	0.548	0.443	0.084
	0.571	0.419	0.120
	0.430	0.408	0.129
	0.452	0.371	0.153
	0.476	0.339	0.182
	0.501	0.310	0.213
	0.453	0.432	0.093
	0.476	0.397	0.119
	0.501	0.367	0.149
	0.526	0.339	0.182
	0.477	0.455	0.056
	0.501	0.424	0.085
	0.525	0.397	0.119
	0.550	0.372	0.154
	0.501	0.481	0.022
	0.525	0.456	0.057
	0.548	0.432	0.093
	0.572	0.409	0.130
	0.441	0.399	0.131
	0.464	0.365	0.157
	0.489	0.334	0.186
	0.513	0.305	0.218
	0.465	0.423	0.095
	0.489	0.391	0.123
	0.513	0.362	0.155
	0.538	0.336	0.188
	0.489	0.448	0.059
	0.513	0.420	0.091
	0.538	0.394	0.126
	0.562	0.370	0.161
	0.513	0.478	0.029
	0.536	0.454	0.065
	0.560	0.431	0.102
	0.583	0.408	0.139
	0.441	0.389	0.141
	0.464	0.355	0.167
	0.489	0.324	0.197
	0.513	0.296	0.229
	0.464	0.413	0.105
	0.489	0.381	0.133
	0.513	0.353	0.165
	0.538	0.326	0.199
	0.489	0.439	0.070
	0.513	0.410	0.102
	0.538	0.384	0.136
	0.562	0.360	0.171
	0.513	0.468	0.039
	0.537	0.444	0.075
	0.560	0.421	0.111
	0.584	0.397	0.148
	0.501	0.510	0.011
	0.533	0.488	0.039
	0.557	0.464	0.075
	0.580	0.441	0.112
	0.477	0.535	0.046
	0.525	0.534	0.047
	0.562	0.512	0.070
	0.590	0.488	0.102
	0.454	0.558	0.083
	0.501	0.567	0.075
	0.548	0.557	0.084
	0.587	0.537	0.105
	0.430	0.581	0.120
	0.476	0.594	0.108
	0.525	0.594	0.108
	0.571	0.581	0.120
	0.510	0.500	0.011
	0.535	0.476	0.047
	0.558	0.453	0.084
	0.581	0.430	0.120
	0.489	0.533	0.039
	0.535	0.524	0.047
	0.567	0.500	0.075
	0.594	0.476	0.109
	0.465	0.557	0.075
	0.513	0.561	0.070
	0.558	0.547	0.084
	0.594	0.525	0.109
	0.441	0.580	0.111
	0.488	0.590	0.102
	0.537	0.586	0.105
	0.581	0.571	0.120
	0.520	0.500	0.022
	0.545	0.476	0.057
	0.569	0.452	0.093
	0.592	0.429	0.130
	0.501	0.538	0.043
	0.545	0.524	0.057
	0.577	0.500	0.086
	0.604	0.476	0.119
	0.476	0.565	0.077
	0.525	0.564	0.077
	0.568	0.548	0.093
	0.604	0.525	0.119
	0.453	0.589	0.113
	0.501	0.595	0.107
	0.549	0.588	0.113
	0.592	0.571	0.130
	0.523	0.488	0.029
	0.546	0.465	0.065
	0.570	0.441	0.102
	0.593	0.418	0.139
	0.513	0.532	0.039
	0.552	0.512	0.060
	0.581	0.488	0.092
	0.607	0.463	0.126
	0.489	0.562	0.070
	0.537	0.556	0.075
	0.577	0.536	0.095
	0.610	0.512	0.123
	0.464	0.587	0.105
	0.513	0.590	0.102
	0.560	0.580	0.112
	0.601	0.560	0.131
	0.489	0.523	0.028
	0.533	0.512	0.039
	0.562	0.488	0.070
	0.587	0.464	0.105
	0.465	0.546	0.065
	0.513	0.552	0.060
	0.557	0.536	0.075
	0.590	0.512	0.102
	0.442	0.570	0.101
	0.489	0.581	0.091
	0.537	0.576	0.095
	0.580	0.559	0.112
	0.419	0.593	0.138
	0.464	0.606	0.126
	0.513	0.609	0.123
	0.561	0.600	0.131
	0.501	0.519	0.022
	0.539	0.500	0.043
	0.565	0.476	0.077
	0.589	0.452	0.113
	0.477	0.545	0.056
	0.525	0.544	0.057
	0.565	0.524	0.077
	0.596	0.500	0.107
	0.453	0.568	0.093
	0.501	0.576	0.085
	0.548	0.568	0.093
	0.589	0.548	0.113
	0.430	0.592	0.129
	0.476	0.603	0.119
	0.525	0.603	0.119
	0.572	0.591	0.130
	0.513	0.522	0.029
	0.548	0.500	0.054
	0.575	0.476	0.088
	0.599	0.452	0.123
	0.489	0.552	0.059
	0.536	0.546	0.065
	0.574	0.525	0.088
	0.605	0.500	0.118
	0.464	0.577	0.095
	0.513	0.581	0.091
	0.560	0.569	0.102
	0.599	0.548	0.123
	0.441	0.601	0.131
	0.488	0.609	0.123
	0.537	0.606	0.126
	0.583	0.592	0.139
	0.523	0.512	0.029
	0.552	0.488	0.060
	0.577	0.464	0.095
	0.601	0.440	0.131
	0.501	0.548	0.054
	0.546	0.536	0.065
	0.581	0.512	0.092
	0.610	0.488	0.123
	0.476	0.574	0.087
	0.525	0.574	0.087
	0.570	0.559	0.102
	0.607	0.537	0.126
	0.452	0.599	0.123
	0.501	0.605	0.117
	0.549	0.598	0.123
	0.593	0.582	0.139
	0.407	0.605	0.157
	0.452	0.619	0.143
	0.501	0.624	0.139
	0.549	0.618	0.143
	0.384	0.628	0.193
	0.428	0.643	0.179
	0.476	0.651	0.171
	0.525	0.651	0.171
	0.360	0.651	0.230
	0.405	0.667	0.215
	0.452	0.677	0.205
	0.501	0.681	0.202
	0.337	0.674	0.267
	0.381	0.691	0.251
	0.428	0.702	0.240
	0.476	0.709	0.235
	0.418	0.604	0.148
	0.464	0.616	0.136
	0.513	0.619	0.134
	0.561	0.610	0.141
	0.395	0.627	0.184
	0.440	0.641	0.171
	0.488	0.647	0.165
	0.538	0.645	0.167
	0.371	0.650	0.221
	0.416	0.665	0.207
	0.464	0.674	0.199
	0.513	0.676	0.197
	0.348	0.673	0.258
	0.392	0.689	0.243
	0.440	0.700	0.233
	0.488	0.704	0.229
	0.429	0.613	0.149
	0.476	0.623	0.140
	0.525	0.622	0.140
	0.573	0.612	0.149
	0.405	0.636	0.185
	0.452	0.648	0.174
	0.501	0.652	0.170
	0.550	0.648	0.174
	0.382	0.660	0.222
	0.428	0.673	0.209
	0.476	0.680	0.203
	0.525	0.680	0.203
	0.359	0.683	0.259
	0.404	0.697	0.245
	0.452	0.706	0.237
	0.501	0.709	0.234
	0.440	0.611	0.141
	0.488	0.619	0.133
	0.537	0.616	0.136
	0.583	0.603	0.148
	0.417	0.635	0.177
	0.464	0.645	0.167
	0.513	0.647	0.165
	0.562	0.641	0.172
	0.393	0.658	0.213
	0.440	0.670	0.202
	0.488	0.676	0.197
	0.538	0.674	0.199
	0.370	0.682	0.250
	0.416	0.695	0.238
	0.464	0.703	0.230
	0.513	0.704	0.229
	0.395	0.616	0.175
	0.440	0.631	0.161
	0.488	0.638	0.155
	0.538	0.635	0.157
	0.372	0.640	0.212
	0.416	0.655	0.197
	0.464	0.664	0.188
	0.513	0.666	0.187
	0.349	0.663	0.249
	0.393	0.679	0.233
	0.440	0.690	0.223
	0.488	0.695	0.218
	0.325	0.686	0.285
	0.369	0.702	0.270
	0.416	0.715	0.258
	0.464	0.722	0.251
	0.406	0.615	0.166
	0.452	0.629	0.153
	0.501	0.633	0.149
	0.550	0.628	0.154
	0.383	0.639	0.203
	0.428	0.653	0.189
	0.476	0.661	0.182
	0.525	0.661	0.182
	0.360	0.662	0.240
	0.404	0.677	0.225
	0.452	0.687	0.216
	0.501	0.690	0.213
	0.336	0.685	0.276
	0.381	0.701	0.261
	0.427	0.712	0.251
	0.476	0.718	0.245
	0.417	0.624	0.167
	0.464	0.636	0.157
	0.513	0.638	0.155
	0.561	0.631	0.161
	0.394	0.648	0.204
	0.440	0.661	0.192
	0.488	0.666	0.187
	0.538	0.664	0.188
	0.370	0.671	0.240
	0.416	0.685	0.227
	0.464	0.693	0.220
	0.513	0.695	0.218
	0.347	0.695	0.277
	0.392	0.709	0.263
	0.439	0.719	0.254
	0.488	0.723	0.250
	0.429	0.623	0.159
	0.476	0.632	0.150
	0.525	0.632	0.150
	0.573	0.622	0.159
	0.405	0.646	0.195
	0.452	0.658	0.185
	0.501	0.662	0.181
	0.550	0.658	0.185
	0.382	0.670	0.232
	0.428	0.683	0.220
	0.476	0.690	0.214
	0.525	0.689	0.214
	0.358	0.693	0.268
	0.404	0.707	0.255
	0.452	0.716	0.247
	0.501	0.719	0.245
	0.513	0.277	0.250
	0.538	0.250	0.283
	0.562	0.223	0.317
	0.587	0.198	0.352
	0.538	0.307	0.220
	0.562	0.281	0.254
	0.586	0.256	0.289
	0.610	0.231	0.325
	0.562	0.340	0.192
	0.586	0.315	0.228
	0.610	0.291	0.264
	0.633	0.267	0.300
	0.584	0.376	0.168
	0.608	0.353	0.204
	0.631	0.329	0.241
	0.655	0.306	0.277
	0.513	0.267	0.261
	0.538	0.240	0.294
	0.562	0.214	0.328
	0.587	0.188	0.362
	0.538	0.297	0.230
	0.562	0.272	0.265
	0.586	0.246	0.300
	0.611	0.222	0.335
	0.562	0.330	0.202
	0.586	0.305	0.238
	0.610	0.281	0.274
	0.633	0.257	0.310
	0.585	0.366	0.177
	0.608	0.342	0.214
	0.632	0.319	0.250
	0.655	0.295	0.287
	0.526	0.263	0.267
	0.550	0.236	0.300
	0.575	0.210	0.334
	0.599	0.185	0.369
	0.550	0.294	0.237
	0.574	0.269	0.272
	0.598	0.244	0.307
	0.622	0.219	0.342
	0.574	0.328	0.210
	0.598	0.303	0.246
	0.621	0.279	0.282
	0.645	0.256	0.318
	0.596	0.364	0.186
	0.620	0.341	0.222
	0.643	0.318	0.259
	0.666	0.294	0.296
	0.526	0.253	0.277
	0.550	0.227	0.311
	0.575	0.201	0.345
	0.599	0.175	0.379
	0.550	0.284	0.248
	0.574	0.259	0.282
	0.598	0.234	0.317
	0.622	0.209	0.353
	0.574	0.318	0.220
	0.598	0.293	0.256
	0.622	0.269	0.292
	0.645	0.245	0.328
	0.596	0.354	0.196
	0.620	0.331	0.232
	0.643	0.307	0.269
	0.667	0.284	0.305
	0.526	0.292	0.235
	0.550	0.265	0.269
	0.574	0.239	0.303
	0.599	0.214	0.338
	0.550	0.323	0.206
	0.574	0.298	0.241
	0.598	0.273	0.276
	0.622	0.249	0.312
	0.573	0.357	0.179
	0.597	0.334	0.215
	0.621	0.310	0.252
	0.644	0.286	0.288
	0.595	0.396	0.157
	0.618	0.373	0.194
	0.641	0.350	0.231
	0.664	0.326	0.267
	0.526	0.282	0.245
	0.550	0.255	0.279
	0.574	0.230	0.313
	0.599	0.205	0.348
	0.550	0.313	0.216
	0.574	0.288	0.251
	0.598	0.263	0.286
	0.622	0.239	0.322
	0.574	0.347	0.189
	0.597	0.323	0.225
	0.621	0.300	0.262
	0.644	0.276	0.298
	0.595	0.385	0.167
	0.619	0.362	0.203
	0.642	0.339	0.240
	0.665	0.316	0.277
	0.538	0.278	0.252
	0.562	0.252	0.286
	0.587	0.227	0.320
	0.611	0.202	0.356
	0.562	0.310	0.223
	0.586	0.286	0.258
	0.610	0.261	0.294
	0.634	0.237	0.330
	0.585	0.346	0.197
	0.609	0.322	0.234
	0.632	0.298	0.270
	0.656	0.275	0.306
	0.606	0.384	0.175
	0.630	0.361	0.212
	0.653	0.338	0.249
	0.676	0.315	0.286
	0.538	0.269	0.262
	0.562	0.243	0.296
	0.587	0.217	0.331
	0.611	0.192	0.366
	0.562	0.301	0.233
	0.586	0.276	0.269
	0.610	0.251	0.304
	0.634	0.227	0.340
	0.585	0.335	0.207
	0.609	0.312	0.243
	0.633	0.288	0.280
	0.656	0.264	0.316
	0.607	0.374	0.185
	0.630	0.350	0.222
	0.653	0.327	0.258
	0.677	0.304	0.295
	0.604	0.417	0.148
	0.627	0.394	0.185
	0.650	0.371	0.222
	0.674	0.347	0.258
	0.616	0.463	0.136
	0.641	0.439	0.172
	0.665	0.415	0.207
	0.689	0.392	0.244
	0.619	0.512	0.134
	0.648	0.488	0.166
	0.674	0.463	0.199
	0.700	0.439	0.234
	0.611	0.560	0.141
	0.645	0.537	0.168
	0.676	0.512	0.197
	0.705	0.488	0.229
	0.605	0.406	0.157
	0.628	0.383	0.194
	0.651	0.360	0.231
	0.674	0.336	0.267
	0.619	0.451	0.144
	0.643	0.428	0.179
	0.667	0.404	0.216
	0.691	0.380	0.252
	0.624	0.500	0.139
	0.652	0.475	0.172
	0.677	0.451	0.206
	0.703	0.427	0.241
	0.619	0.549	0.144
	0.652	0.525	0.172
	0.681	0.500	0.203
	0.709	0.475	0.235
	0.615	0.406	0.167
	0.639	0.382	0.203
	0.662	0.359	0.240
	0.685	0.336	0.277
	0.629	0.451	0.154
	0.653	0.427	0.190
	0.677	0.404	0.226
	0.701	0.380	0.262
	0.634	0.500	0.149
	0.661	0.475	0.182
	0.687	0.451	0.216
	0.712	0.427	0.251
	0.629	0.549	0.154
	0.661	0.525	0.182
	0.691	0.500	0.213
	0.718	0.475	0.246
	0.616	0.395	0.176
	0.640	0.371	0.212
	0.663	0.348	0.249
	0.686	0.325	0.286
	0.631	0.439	0.161
	0.655	0.416	0.197
	0.679	0.392	0.234
	0.703	0.368	0.270
	0.638	0.488	0.155
	0.665	0.463	0.189
	0.690	0.439	0.223
	0.715	0.415	0.259
	0.636	0.537	0.157
	0.667	0.512	0.187
	0.695	0.488	0.219
	0.722	0.463	0.252
	0.611	0.440	0.141
	0.635	0.416	0.177
	0.658	0.393	0.214
	0.682	0.369	0.250
	0.619	0.488	0.134
	0.645	0.463	0.168
	0.671	0.439	0.203
	0.695	0.415	0.238
	0.616	0.537	0.136
	0.648	0.512	0.166
	0.676	0.488	0.197
	0.703	0.463	0.231
	0.604	0.583	0.148
	0.641	0.561	0.172
	0.674	0.537	0.199
	0.705	0.512	0.229
	0.613	0.428	0.149
	0.636	0.405	0.186
	0.660	0.381	0.222
	0.683	0.358	0.259
	0.623	0.475	0.140
	0.648	0.451	0.175
	0.673	0.427	0.210
	0.697	0.403	0.246
	0.623	0.525	0.140
	0.653	0.500	0.171
	0.680	0.475	0.203
	0.706	0.451	0.237
	0.613	0.572	0.149
	0.648	0.549	0.175
	0.680	0.525	0.203
	0.710	0.500	0.234
	0.623	0.428	0.159
	0.647	0.404	0.196
	0.670	0.381	0.232
	0.694	0.357	0.269
	0.632	0.475	0.151
	0.658	0.451	0.185
	0.683	0.427	0.220
	0.707	0.403	0.256
	0.632	0.525	0.151
	0.662	0.500	0.181
	0.690	0.475	0.214
	0.716	0.451	0.248
	0.623	0.572	0.159
	0.658	0.549	0.185
	0.690	0.525	0.214
	0.719	0.500	0.245
	0.624	0.416	0.168
	0.648	0.393	0.204
	0.671	0.370	0.241
	0.695	0.346	0.277
	0.636	0.463	0.157
	0.661	0.439	0.192
	0.685	0.415	0.228
	0.709	0.391	0.264
	0.638	0.512	0.155
	0.667	0.488	0.187
	0.693	0.463	0.220
	0.719	0.439	0.255
	0.631	0.561	0.161
	0.665	0.537	0.189
	0.695	0.512	0.219
	0.724	0.488	0.251
	0.595	0.604	0.157
	0.635	0.584	0.177
	0.671	0.561	0.203
	0.703	0.537	0.231
	0.573	0.643	0.179
	0.618	0.627	0.194
	0.658	0.607	0.214
	0.695	0.585	0.238
	0.550	0.677	0.206
	0.597	0.666	0.215
	0.641	0.651	0.231
	0.682	0.631	0.250
	0.525	0.709	0.235
	0.574	0.702	0.241
	0.621	0.690	0.252
	0.664	0.674	0.267
	0.605	0.594	0.157
	0.643	0.573	0.179
	0.677	0.549	0.206
	0.709	0.525	0.235
	0.585	0.634	0.177
	0.628	0.617	0.194
	0.667	0.596	0.216
	0.703	0.573	0.241
	0.562	0.670	0.202
	0.608	0.658	0.214
	0.651	0.640	0.231
	0.691	0.620	0.252
	0.538	0.703	0.231
	0.586	0.695	0.238
	0.632	0.681	0.250
	0.674	0.664	0.267
	0.615	0.594	0.167
	0.653	0.573	0.190
	0.687	0.549	0.216
	0.718	0.525	0.246
	0.596	0.636	0.186
	0.639	0.618	0.203
	0.677	0.597	0.226
	0.712	0.573	0.251
	0.574	0.673	0.210
	0.619	0.659	0.222
	0.662	0.641	0.240
	0.701	0.620	0.262
	0.550	0.706	0.237
	0.598	0.697	0.246
	0.643	0.682	0.259
	0.685	0.664	0.277
	0.624	0.584	0.168
	0.661	0.561	0.192
	0.693	0.537	0.220
	0.724	0.512	0.251
	0.607	0.626	0.185
	0.648	0.607	0.204
	0.685	0.585	0.228
	0.719	0.561	0.255
	0.585	0.665	0.207
	0.630	0.650	0.222
	0.671	0.630	0.241
	0.709	0.609	0.264
	0.562	0.699	0.233
	0.609	0.689	0.243
	0.653	0.673	0.258
	0.695	0.654	0.277
	0.584	0.624	0.168
	0.627	0.606	0.185
	0.665	0.585	0.208
	0.700	0.561	0.234
	0.562	0.660	0.192
	0.608	0.647	0.204
	0.650	0.629	0.222
	0.689	0.608	0.244
	0.538	0.693	0.220
	0.586	0.685	0.228
	0.631	0.671	0.241
	0.674	0.653	0.258
	0.513	0.723	0.250
	0.562	0.719	0.254
	0.609	0.709	0.264
	0.654	0.694	0.277
	0.595	0.615	0.167
	0.636	0.595	0.186
	0.673	0.573	0.210
	0.706	0.549	0.237
	0.573	0.653	0.189
	0.618	0.638	0.203
	0.660	0.619	0.222
	0.697	0.597	0.246
	0.550	0.687	0.216
	0.597	0.677	0.225
	0.642	0.661	0.240
	0.683	0.642	0.259
	0.525	0.718	0.245
	0.574	0.712	0.251
	0.621	0.700	0.262
	0.665	0.685	0.277
	0.606	0.616	0.176
	0.647	0.596	0.196
	0.683	0.573	0.220
	0.716	0.549	0.248
	0.585	0.655	0.197
	0.629	0.639	0.212
	0.670	0.619	0.232
	0.707	0.597	0.256
	0.562	0.690	0.223
	0.609	0.678	0.234
	0.653	0.662	0.249
	0.694	0.643	0.269
	0.538	0.722	0.252
	0.586	0.714	0.258
	0.632	0.702	0.270
	0.676	0.685	0.286
	0.616	0.606	0.176
	0.655	0.584	0.197
	0.690	0.561	0.223
	0.722	0.537	0.252
	0.596	0.646	0.196
	0.640	0.629	0.212
	0.679	0.608	0.234
	0.715	0.585	0.259
	0.574	0.682	0.220
	0.620	0.669	0.232
	0.663	0.652	0.249
	0.702	0.632	0.270
	0.550	0.716	0.248
	0.598	0.707	0.256
	0.643	0.693	0.269
	0.686	0.675	0.286
