generated by phonopy
   1.0
    22.1012363181956033  -12.7601579779455427    0.0000000000000000
     0.0000000004873096   25.5203062168431352    0.0000000000000000
     0.0000000000000000    0.0000000000000000   32.3149348674882901
S Mo
 128   64
Direct
  0.0416666250000004  0.0833333749999996  0.3935310461719226
  0.1666666250000004  0.0833333749999996  0.3935310461719226
  0.2916666250000004  0.0833333749999996  0.3935310461719226
  0.4166666250000004  0.0833333749999996  0.3935310461719226
  0.5416666250000004  0.0833333749999996  0.3935310461719226
  0.6666666250000004  0.0833333749999996  0.3935310461719226
  0.7916666250000004  0.0833333749999996  0.3935310461719226
  0.9166666250000004  0.0833333749999996  0.3935310461719226
  0.0416666250000004  0.2083333749999996  0.3935310461719226
  0.1666666250000004  0.2083333749999996  0.3935310461719226
  0.2916666250000004  0.2083333749999996  0.3935310461719226
  0.4166666250000004  0.2083333749999996  0.3935310461719226
  0.5416666250000004  0.2083333749999996  0.3935310461719226
  0.6666666250000004  0.2083333749999996  0.3935310461719226
  0.7916666250000004  0.2083333749999996  0.3935310461719226
  0.9166666250000004  0.2083333749999996  0.3935310461719226
  0.0416666250000004  0.3333333749999996  0.3935310461719226
  0.1666666250000004  0.3333333749999996  0.3935310461719226
  0.2916666250000004  0.3333333749999996  0.3935310461719226
  0.4166666250000004  0.3333333749999996  0.3935310461719226
  0.5416666250000004  0.3333333749999996  0.3935310461719226
  0.6666666250000004  0.3333333749999996  0.3935310461719226
  0.7916666250000004  0.3333333749999996  0.3935310461719226
  0.9166666250000004  0.3333333749999996  0.3935310461719226
  0.0416666250000004  0.4583333749999996  0.3935310461719226
  0.1666666250000004  0.4583333749999996  0.3935310461719226
  0.2916666250000004  0.4583333749999996  0.3935310461719226
  0.4166666250000004  0.4583333749999996  0.3935310461719226
  0.5416666250000004  0.4583333749999996  0.3935310461719226
  0.6666666250000004  0.4583333749999996  0.3935310461719226
  0.7916666250000004  0.4583333749999996  0.3935310461719226
  0.9166666250000004  0.4583333749999996  0.3935310461719226
  0.0416666250000004  0.5833333749999996  0.3935310461719226
  0.1666666250000004  0.5833333749999996  0.3935310461719226
  0.2916666250000004  0.5833333749999996  0.3935310461719226
  0.4166666250000004  0.5833333749999996  0.3935310461719226
  0.5416666250000004  0.5833333749999996  0.3935310461719226
  0.6666666250000004  0.5833333749999996  0.3935310461719226
  0.7916666250000004  0.5833333749999996  0.3935310461719226
  0.9166666250000004  0.5833333749999996  0.3935310461719226
  0.0416666250000004  0.7083333749999996  0.3935310461719226
  0.1666666250000004  0.7083333749999996  0.3935310461719226
  0.2916666250000004  0.7083333749999996  0.3935310461719226
  0.4166666250000004  0.7083333749999996  0.3935310461719226
  0.5416666250000004  0.7083333749999996  0.3935310461719226
  0.6666666250000004  0.7083333749999996  0.3935310461719226
  0.7916666250000004  0.7083333749999996  0.3935310461719226
  0.9166666250000004  0.7083333749999996  0.3935310461719226
  0.0416666250000004  0.8333333749999996  0.3935310461719226
  0.1666666250000004  0.8333333749999996  0.3935310461719226
  0.2916666250000004  0.8333333749999996  0.3935310461719226
  0.4166666250000004  0.8333333749999996  0.3935310461719226
  0.5416666250000004  0.8333333749999996  0.3935310461719226
  0.6666666250000004  0.8333333749999996  0.3935310461719226
  0.7916666250000004  0.8333333749999996  0.3935310461719226
  0.9166666250000004  0.8333333749999996  0.3935310461719226
  0.0416666250000004  0.9583333749999996  0.3935310461719226
  0.1666666250000004  0.9583333749999996  0.3935310461719226
  0.2916666250000004  0.9583333749999996  0.3935310461719226
  0.4166666250000004  0.9583333749999996  0.3935310461719226
  0.5416666250000004  0.9583333749999996  0.3935310461719226
  0.6666666250000004  0.9583333749999996  0.3935310461719226
  0.7916666250000004  0.9583333749999996  0.3935310461719226
  0.9166666250000004  0.9583333749999996  0.3935310461719226
  0.0416666250000004  0.0833333749999996  0.2970489538280816
  0.1666666250000004  0.0833333749999996  0.2970489538280816
  0.2916666250000004  0.0833333749999996  0.2970489538280816
  0.4166666250000004  0.0833333749999996  0.2970489538280816
  0.5416666250000004  0.0833333749999996  0.2970489538280816
  0.6666666250000004  0.0833333749999996  0.2970489538280816
  0.7916666250000004  0.0833333749999996  0.2970489538280816
  0.9166666250000004  0.0833333749999996  0.2970489538280816
  0.0416666250000004  0.2083333749999996  0.2970489538280816
  0.1666666250000004  0.2083333749999996  0.2970489538280816
  0.2916666250000004  0.2083333749999996  0.2970489538280816
  0.4166666250000004  0.2083333749999996  0.2970489538280816
  0.5416666250000004  0.2083333749999996  0.2970489538280816
  0.6666666250000004  0.2083333749999996  0.2970489538280816
  0.7916666250000004  0.2083333749999996  0.2970489538280816
  0.9166666250000004  0.2083333749999996  0.2970489538280816
  0.0416666250000004  0.3333333749999996  0.2970489538280816
  0.1666666250000004  0.3333333749999996  0.2970489538280816
  0.2916666250000004  0.3333333749999996  0.2970489538280816
  0.4166666250000004  0.3333333749999996  0.2970489538280816
  0.5416666250000004  0.3333333749999996  0.2970489538280816
  0.6666666250000004  0.3333333749999996  0.2970489538280816
  0.7916666250000004  0.3333333749999996  0.2970489538280816
  0.9166666250000004  0.3333333749999996  0.2970489538280816
  0.0416666250000004  0.4583333749999996  0.2970489538280816
  0.1666666250000004  0.4583333749999996  0.2970489538280816
  0.2916666250000004  0.4583333749999996  0.2970489538280816
  0.4166666250000004  0.4583333749999996  0.2970489538280816
  0.5416666250000004  0.4583333749999996  0.2970489538280816
  0.6666666250000004  0.4583333749999996  0.2970489538280816
  0.7916666250000004  0.4583333749999996  0.2970489538280816
  0.9166666250000004  0.4583333749999996  0.2970489538280816
  0.0416666250000004  0.5833333749999996  0.2970489538280816
  0.1666666250000004  0.5833333749999996  0.2970489538280816
  0.2916666250000004  0.5833333749999996  0.2970489538280816
  0.4166666250000004  0.5833333749999996  0.2970489538280816
  0.5416666250000004  0.5833333749999996  0.2970489538280816
  0.6666666250000004  0.5833333749999996  0.2970489538280816
  0.7916666250000004  0.5833333749999996  0.2970489538280816
  0.9166666250000004  0.5833333749999996  0.2970489538280816
  0.0416666250000004  0.7083333749999996  0.2970489538280816
  0.1666666250000004  0.7083333749999996  0.2970489538280816
  0.2916666250000004  0.7083333749999996  0.2970489538280816
  0.4166666250000004  0.7083333749999996  0.2970489538280816
  0.5416666250000004  0.7083333749999996  0.2970489538280816
  0.6666666250000004  0.7083333749999996  0.2970489538280816
  0.7916666250000004  0.7083333749999996  0.2970489538280816
  0.9166666250000004  0.7083333749999996  0.2970489538280816
  0.0416666250000004  0.8333333749999996  0.2970489538280816
  0.1666666250000004  0.8333333749999996  0.2970489538280816
  0.2916666250000004  0.8333333749999996  0.2970489538280816
  0.4166666250000004  0.8333333749999996  0.2970489538280816
  0.5416666250000004  0.8333333749999996  0.2970489538280816
  0.6666666250000004  0.8333333749999996  0.2970489538280816
  0.7916666250000004  0.8333333749999996  0.2970489538280816
  0.9166666250000004  0.8333333749999996  0.2970489538280816
  0.0416666250000004  0.9583333749999996  0.2970489538280816
  0.1666666250000004  0.9583333749999996  0.2970489538280816
  0.2916666250000004  0.9583333749999996  0.2970489538280816
  0.4166666250000004  0.9583333749999996  0.2970489538280816
  0.5416666250000004  0.9583333749999996  0.2970489538280816
  0.6666666250000004  0.9583333749999996  0.2970489538280816
  0.7916666250000004  0.9583333749999996  0.2970489538280816
  0.9166666250000004  0.9583333749999996  0.2970489538280816
  0.0833333749999996  0.0416666250000004  0.3452899999999985
  0.2083333749999996  0.0416666250000004  0.3452899999999985
  0.3333333749999996  0.0416666250000004  0.3452899999999985
  0.4583333749999996  0.0416666250000004  0.3452899999999985
  0.5833333749999996  0.0416666250000004  0.3452899999999985
  0.7083333749999996  0.0416666250000004  0.3452899999999985
  0.8333333749999996  0.0416666250000004  0.3452899999999985
  0.9583333749999996  0.0416666250000004  0.3452899999999985
  0.0833333749999996  0.1666666250000004  0.3452899999999985
  0.2083333749999996  0.1666666250000004  0.3452899999999985
  0.3333333749999996  0.1666666250000004  0.3452899999999985
  0.4583333749999996  0.1666666250000004  0.3452899999999985
  0.5833333749999996  0.1666666250000004  0.3452899999999985
  0.7083333749999996  0.1666666250000004  0.3452899999999985
  0.8333333749999996  0.1666666250000004  0.3452899999999985
  0.9583333749999996  0.1666666250000004  0.3452899999999985
  0.0833333749999996  0.2916666250000004  0.3452899999999985
  0.2083333749999996  0.2916666250000004  0.3452899999999985
  0.3333333749999996  0.2916666250000004  0.3452899999999985
  0.4583333749999996  0.2916666250000004  0.3452899999999985
  0.5833333749999996  0.2916666250000004  0.3452899999999985
  0.7083333749999996  0.2916666250000004  0.3452899999999985
  0.8333333749999996  0.2916666250000004  0.3452899999999985
  0.9583333749999996  0.2916666250000004  0.3452899999999985
  0.0833333749999996  0.4166666250000004  0.3452899999999985
  0.2083333749999996  0.4166666250000004  0.3452899999999985
  0.3333333749999996  0.4166666250000004  0.3452899999999985
  0.4583333749999996  0.4166666250000004  0.3452899999999985
  0.5833333749999996  0.4166666250000004  0.3452899999999985
  0.7083333749999996  0.4166666250000004  0.3452899999999985
  0.8333333749999996  0.4166666250000004  0.3452899999999985
  0.9583333749999996  0.4166666250000004  0.3452899999999985
  0.0833333749999996  0.5416666250000004  0.3452899999999985
  0.2083333749999996  0.5416666250000004  0.3452899999999985
  0.3333333749999996  0.5416666250000004  0.3452899999999985
  0.4583333749999996  0.5416666250000004  0.3452899999999985
  0.5833333749999996  0.5416666250000004  0.3452899999999985
  0.7083333749999996  0.5416666250000004  0.3452899999999985
  0.8333333749999996  0.5416666250000004  0.3452899999999985
  0.9583333749999996  0.5416666250000004  0.3452899999999985
  0.0833333749999996  0.6666666250000004  0.3452899999999985
  0.2083333749999996  0.6666666250000004  0.3452899999999985
  0.3333333749999996  0.6666666250000004  0.3452899999999985
  0.4583333749999996  0.6666666250000004  0.3452899999999985
  0.5833333749999996  0.6666666250000004  0.3452899999999985
  0.7083333749999996  0.6666666250000004  0.3452899999999985
  0.8333333749999996  0.6666666250000004  0.3452899999999985
  0.9583333749999996  0.6666666250000004  0.3452899999999985
  0.0833333749999996  0.7916666250000004  0.3452899999999985
  0.2083333749999996  0.7916666250000004  0.3452899999999985
  0.3333333749999996  0.7916666250000004  0.3452899999999985
  0.4583333749999996  0.7916666250000004  0.3452899999999985
  0.5833333749999996  0.7916666250000004  0.3452899999999985
  0.7083333749999996  0.7916666250000004  0.3452899999999985
  0.8333333749999996  0.7916666250000004  0.3452899999999985
  0.9583333749999996  0.7916666250000004  0.3452899999999985
  0.0833333749999996  0.9166666250000004  0.3452899999999985
  0.2083333749999996  0.9166666250000004  0.3452899999999985
  0.3333333749999996  0.9166666250000004  0.3452899999999985
  0.4583333749999996  0.9166666250000004  0.3452899999999985
  0.5833333749999996  0.9166666250000004  0.3452899999999985
  0.7083333749999996  0.9166666250000004  0.3452899999999985
  0.8333333749999996  0.9166666250000004  0.3452899999999985
  0.9583333749999996  0.9166666250000004  0.3452899999999985
