generated by phonopy
   1.0
    17.1007072448933464   -9.8763094120601735    0.0243959330585304
    -0.0030207687569528   19.7464361279005090   -0.0132274807423684
     0.0207635097437859   -0.0144737471107355   19.7520814956012210
C
 128
Direct
  0.0476677713405502  0.0868271084128984  0.4433204160567538
  0.2976677713405502  0.0868271084128984  0.4433204160567538
  0.5476677713405502  0.0868271084128984  0.4433204160567538
  0.7976677713405502  0.0868271084128984  0.4433204160567538
  0.0476677713405502  0.3368271084128984  0.4433204160567538
  0.2976677713405502  0.3368271084128984  0.4433204160567538
  0.5476677713405502  0.3368271084128984  0.4433204160567538
  0.7976677713405502  0.3368271084128984  0.4433204160567538
  0.0476677713405502  0.5868271084128984  0.4433204160567538
  0.2976677713405502  0.5868271084128984  0.4433204160567538
  0.5476677713405502  0.5868271084128984  0.4433204160567538
  0.7976677713405502  0.5868271084128984  0.4433204160567538
  0.0476677713405502  0.8368271084128984  0.4433204160567538
  0.2976677713405502  0.8368271084128984  0.4433204160567538
  0.5476677713405502  0.8368271084128984  0.4433204160567538
  0.7976677713405502  0.8368271084128984  0.4433204160567538
  0.0893379741119567  0.0451553654730211  0.4433241759846883
  0.3393379741119567  0.0451553654730211  0.4433241759846883
  0.5893379741119567  0.0451553654730211  0.4433241759846883
  0.8393379741119567  0.0451553654730211  0.4433241759846883
  0.0893379741119567  0.2951553654730211  0.4433241759846883
  0.3393379741119567  0.2951553654730211  0.4433241759846883
  0.5893379741119567  0.2951553654730211  0.4433241759846883
  0.8393379741119567  0.2951553654730211  0.4433241759846883
  0.0893379741119567  0.5451553654730211  0.4433241759846883
  0.3393379741119567  0.5451553654730211  0.4433241759846883
  0.5893379741119567  0.5451553654730211  0.4433241759846883
  0.8393379741119567  0.5451553654730211  0.4433241759846883
  0.0893379741119567  0.7951553654730211  0.4433241759846883
  0.3393379741119567  0.7951553654730211  0.4433241759846883
  0.5893379741119567  0.7951553654730211  0.4433241759846883
  0.8393379741119567  0.7951553654730211  0.4433241759846883
  0.1726677713405474  0.0868271084128984  0.4433204160567538
  0.4226677713405474  0.0868271084128984  0.4433204160567538
  0.6726677713405474  0.0868271084128984  0.4433204160567538
  0.9226677713405474  0.0868271084128984  0.4433204160567538
  0.1726677713405474  0.3368271084128984  0.4433204160567538
  0.4226677713405474  0.3368271084128984  0.4433204160567538
  0.6726677713405474  0.3368271084128984  0.4433204160567538
  0.9226677713405474  0.3368271084128984  0.4433204160567538
  0.1726677713405474  0.5868271084128984  0.4433204160567538
  0.4226677713405474  0.5868271084128984  0.4433204160567538
  0.6726677713405474  0.5868271084128984  0.4433204160567538
  0.9226677713405474  0.5868271084128984  0.4433204160567538
  0.1726677713405474  0.8368271084128984  0.4433204160567538
  0.4226677713405474  0.8368271084128984  0.4433204160567538
  0.6726677713405474  0.8368271084128984  0.4433204160567538
  0.9226677713405474  0.8368271084128984  0.4433204160567538
  0.2143379741119597  0.0451553654730211  0.4433241759846883
  0.4643379741119597  0.0451553654730211  0.4433241759846883
  0.7143379741119597  0.0451553654730211  0.4433241759846883
  0.9643379741119597  0.0451553654730211  0.4433241759846883
  0.2143379741119597  0.2951553654730211  0.4433241759846883
  0.4643379741119597  0.2951553654730211  0.4433241759846883
  0.7143379741119597  0.2951553654730211  0.4433241759846883
  0.9643379741119597  0.2951553654730211  0.4433241759846883
  0.2143379741119597  0.5451553654730211  0.4433241759846883
  0.4643379741119597  0.5451553654730211  0.4433241759846883
  0.7143379741119597  0.5451553654730211  0.4433241759846883
  0.9643379741119597  0.5451553654730211  0.4433241759846883
  0.2143379741119597  0.7951553654730211  0.4433241759846883
  0.4643379741119597  0.7951553654730211  0.4433241759846883
  0.7143379741119597  0.7951553654730211  0.4433241759846883
  0.9643379741119597  0.7951553654730211  0.4433241759846883
  0.0476677713405502  0.2118271084128950  0.4433204160567538
  0.2976677713405502  0.2118271084128950  0.4433204160567538
  0.5476677713405502  0.2118271084128950  0.4433204160567538
  0.7976677713405502  0.2118271084128950  0.4433204160567538
  0.0476677713405502  0.4618271084128950  0.4433204160567538
  0.2976677713405502  0.4618271084128950  0.4433204160567538
  0.5476677713405502  0.4618271084128950  0.4433204160567538
  0.7976677713405502  0.4618271084128950  0.4433204160567538
  0.0476677713405502  0.7118271084128951  0.4433204160567538
  0.2976677713405502  0.7118271084128951  0.4433204160567538
  0.5476677713405502  0.7118271084128951  0.4433204160567538
  0.7976677713405502  0.7118271084128951  0.4433204160567538
  0.0476677713405502  0.9618271084128951  0.4433204160567538
  0.2976677713405502  0.9618271084128951  0.4433204160567538
  0.5476677713405502  0.9618271084128951  0.4433204160567538
  0.7976677713405502  0.9618271084128951  0.4433204160567538
  0.0893379741119567  0.1701553654730228  0.4433241759846883
  0.3393379741119567  0.1701553654730228  0.4433241759846883
  0.5893379741119567  0.1701553654730228  0.4433241759846883
  0.8393379741119567  0.1701553654730228  0.4433241759846883
  0.0893379741119567  0.4201553654730228  0.4433241759846883
  0.3393379741119567  0.4201553654730228  0.4433241759846883
  0.5893379741119567  0.4201553654730228  0.4433241759846883
  0.8393379741119567  0.4201553654730228  0.4433241759846883
  0.0893379741119567  0.6701553654730228  0.4433241759846883
  0.3393379741119567  0.6701553654730228  0.4433241759846883
  0.5893379741119567  0.6701553654730228  0.4433241759846883
  0.8393379741119567  0.6701553654730228  0.4433241759846883
  0.0893379741119567  0.9201553654730228  0.4433241759846883
  0.3393379741119567  0.9201553654730228  0.4433241759846883
  0.5893379741119567  0.9201553654730228  0.4433241759846883
  0.8393379741119567  0.9201553654730228  0.4433241759846883
  0.1726677713405474  0.2118271084128950  0.4433204160567538
  0.4226677713405474  0.2118271084128950  0.4433204160567538
  0.6726677713405474  0.2118271084128950  0.4433204160567538
  0.9226677713405474  0.2118271084128950  0.4433204160567538
  0.1726677713405474  0.4618271084128950  0.4433204160567538
  0.4226677713405474  0.4618271084128950  0.4433204160567538
  0.6726677713405474  0.4618271084128950  0.4433204160567538
  0.9226677713405474  0.4618271084128950  0.4433204160567538
  0.1726677713405474  0.7118271084128951  0.4433204160567538
  0.4226677713405474  0.7118271084128951  0.4433204160567538
  0.6726677713405474  0.7118271084128951  0.4433204160567538
  0.9226677713405474  0.7118271084128951  0.4433204160567538
  0.1726677713405474  0.9618271084128951  0.4433204160567538
  0.4226677713405474  0.9618271084128951  0.4433204160567538
  0.6726677713405474  0.9618271084128951  0.4433204160567538
  0.9226677713405474  0.9618271084128951  0.4433204160567538
  0.2143379741119597  0.1701553654730228  0.4433241759846883
  0.4643379741119597  0.1701553654730228  0.4433241759846883
  0.7143379741119597  0.1701553654730228  0.4433241759846883
  0.9643379741119597  0.1701553654730228  0.4433241759846883
  0.2143379741119597  0.4201553654730228  0.4433241759846883
  0.4643379741119597  0.4201553654730228  0.4433241759846883
  0.7143379741119597  0.4201553654730228  0.4433241759846883
  0.9643379741119597  0.4201553654730228  0.4433241759846883
  0.2143379741119597  0.6701553654730228  0.4433241759846883
  0.4643379741119597  0.6701553654730228  0.4433241759846883
  0.7143379741119597  0.6701553654730228  0.4433241759846883
  0.9643379741119597  0.6701553654730228  0.4433241759846883
  0.2143379741119597  0.9201553654730228  0.4433241759846883
  0.4643379741119597  0.9201553654730228  0.4433241759846883
  0.7143379741119597  0.9201553654730228  0.4433241759846883
  0.9643379741119597  0.9201553654730228  0.4433241759846883
