generated by phonopy
   1.0
     30 0 0
     0 30 0
     0 0 30
C
 112
Direct
	0.26	0.52	0.16
	0.34	0.38	0.13
	0.45	0.26	0.16
	0.56	0.17	0.22
	0.30	0.41	0.15
	0.40	0.52	0.07
	0.49	0.40	0.07
	0.61	0.31	0.15
	0.23	0.55	0.18
	0.37	0.55	0.09
	0.51	0.54	0.03
	0.64	0.46	0.09
	0.17	0.69	0.25
	0.32	0.68	0.17
	0.47	0.67	0.11
	0.62	0.62	0.11
	0.26	0.48	0.16
	0.35	0.34	0.15
	0.46	0.23	0.18
	0.58	0.13	0.25
	0.40	0.48	0.07
	0.50	0.36	0.09
	0.62	0.27	0.17
	0.54	0.50	0.03
	0.65	0.42	0.11
	0.20	0.66	0.22
	0.35	0.66	0.15
	0.50	0.64	0.09
	0.65	0.58	0.11
	0.30	0.45	0.14
	0.39	0.32	0.14
	0.51	0.21	0.19
	0.62	0.12	0.26
	0.37	0.41	0.11
	0.44	0.45	0.05
	0.55	0.35	0.11
	0.66	0.27	0.19
	0.30	0.55	0.14
	0.44	0.55	0.05
	0.58	0.50	0.05
	0.69	0.42	0.14
	0.24	0.69	0.21
	0.39	0.68	0.14
	0.55	0.65	0.11
	0.69	0.58	0.14
	0.40	0.28	0.16
	0.52	0.18	0.21
	0.63	0.09	0.29
	0.45	0.41	0.07
	0.56	0.31	0.13
	0.67	0.23	0.21
	0.33	0.52	0.11
	0.47	0.52	0.03
	0.60	0.46	0.07
	0.71	0.38	0.16
	0.28	0.66	0.18
	0.42	0.66	0.11
	0.58	0.62	0.09
	0.72	0.54	0.15
	0.30	0.59	0.15
	0.37	0.45	0.09
	0.47	0.33	0.11
	0.59	0.24	0.18
	0.51	0.46	0.03
	0.62	0.38	0.11
	0.20	0.62	0.21
	0.34	0.62	0.13
	0.49	0.60	0.07
	0.64	0.54	0.09
	0.15	0.76	0.29
	0.29	0.75	0.21
	0.45	0.74	0.16
	0.61	0.69	0.15
	0.48	0.29	0.14
	0.60	0.20	0.21
	0.52	0.42	0.05
	0.64	0.34	0.14
	0.23	0.59	0.19
	0.37	0.59	0.11
	0.52	0.58	0.05
	0.66	0.50	0.11
	0.18	0.73	0.26
	0.33	0.73	0.19
	0.48	0.71	0.14
	0.64	0.66	0.14
	0.41	0.39	0.09
	0.53	0.28	0.15
	0.64	0.19	0.22
	0.33	0.48	0.11
	0.47	0.48	0.03
	0.57	0.42	0.07
	0.68	0.34	0.16
	0.27	0.62	0.17
	0.41	0.61	0.09
	0.57	0.58	0.07
	0.70	0.50	0.13
	0.22	0.75	0.25
	0.37	0.74	0.18
	0.53	0.72	0.15
	0.68	0.66	0.16
	0.42	0.34	0.11
	0.54	0.24	0.17
	0.66	0.16	0.25
	0.58	0.38	0.09
	0.69	0.30	0.18
	0.45	0.59	0.07
	0.60	0.54	0.07
	0.72	0.46	0.15
	0.25	0.73	0.22
	0.40	0.72	0.16
	0.56	0.69	0.13
	0.71	0.62	0.16
