generated by phonopy
   1.0
     80 0 0
     0 80 0
     0 0 80
C
 1152
Direct
	0.3466	0.5067	0.1019
	0.3686	0.4641	0.0904
	0.3952	0.4228	0.0863
	0.4264	0.3849	0.0907
	0.3698	0.5491	0.0923
	0.3877	0.5067	0.0746
	0.4103	0.4642	0.0640
	0.4393	0.4245	0.0642
	0.3830	0.4304	0.0903
	0.4120	0.5488	0.0667
	0.4289	0.5067	0.0474
	0.4529	0.4647	0.0391
	0.3575	0.4722	0.0963
	0.3990	0.4722	0.0695
	0.4408	0.4724	0.0433
	0.4702	0.5067	0.0203
	0.3466	0.4925	0.1019
	0.3699	0.4500	0.0924
	0.3978	0.4095	0.0905
	0.4297	0.3724	0.0967
	0.3685	0.5351	0.0903
	0.3878	0.4925	0.0746
	0.4122	0.4504	0.0669
	0.4426	0.4118	0.0698
	0.3949	0.4239	0.0861
	0.4102	0.5350	0.0639
	0.4289	0.4925	0.0474
	0.4556	0.4515	0.0436
	0.3684	0.4651	0.0903
	0.4101	0.4652	0.0639
	0.4526	0.4657	0.0388
	0.4702	0.4925	0.0204
	0.3571	0.4853	0.0953
	0.3813	0.4432	0.0873
	0.4103	0.4033	0.0875
	0.4430	0.3674	0.0957
	0.3784	0.5280	0.0828
	0.3983	0.4853	0.0682
	0.4241	0.4438	0.0627
	0.4558	0.4066	0.0686
	0.4045	0.4309	0.0782
	0.4200	0.5279	0.0562
	0.4396	0.4854	0.0412
	0.4686	0.4459	0.0415
	0.3782	0.4722	0.0828
	0.4198	0.4723	0.0563
	0.4622	0.4727	0.0309
	0.4817	0.4857	0.0154
	0.3577	0.4711	0.0963
	0.3833	0.4294	0.0905
	0.4134	0.3904	0.0926
	0.4466	0.3553	0.1023
	0.3776	0.5138	0.0817
	0.3992	0.4712	0.0695
	0.4267	0.4305	0.0670
	0.4593	0.3944	0.0751
	0.4024	0.5558	0.0746
	0.4189	0.5138	0.0546
	0.4411	0.4714	0.0435
	0.4720	0.4336	0.0478
	0.3892	0.4652	0.0770
	0.4312	0.4654	0.0511
	0.4604	0.5137	0.0278
	0.4848	0.4728	0.0207
	0.3577	0.5280	0.0962
	0.3777	0.4853	0.0817
	0.4025	0.4434	0.0748
	0.4328	0.4046	0.0774
	0.3832	0.5698	0.0903
	0.3991	0.5280	0.0694
	0.4189	0.4853	0.0547
	0.4460	0.4445	0.0514
	0.3697	0.4511	0.0923
	0.4119	0.4514	0.0667
	0.4410	0.5278	0.0433
	0.4604	0.4854	0.0280
	0.3465	0.4935	0.1019
	0.3876	0.4935	0.0747
	0.4288	0.4935	0.0474
	0.4701	0.4935	0.0203
	0.3570	0.5138	0.0953
	0.3784	0.4712	0.0829
	0.4048	0.4298	0.0784
	0.4361	0.3920	0.0832
	0.3812	0.5560	0.0871
	0.3982	0.5138	0.0681
	0.4200	0.4712	0.0564
	0.4491	0.4316	0.0566
	0.3810	0.4442	0.0872
	0.4237	0.4448	0.0624
	0.4396	0.5138	0.0411
	0.4625	0.4717	0.0312
	0.3569	0.4864	0.0953
	0.3981	0.4864	0.0682
	0.4395	0.4864	0.0412
	0.4814	0.4866	0.0152
	0.3672	0.5067	0.0882
	0.3894	0.4641	0.0771
	0.4171	0.4235	0.0748
	0.4494	0.3870	0.0821
	0.3908	0.5490	0.0794
	0.4083	0.5067	0.0610
	0.4314	0.4644	0.0513
	0.4622	0.4262	0.0550
	0.3907	0.4512	0.0794
	0.4334	0.4518	0.0546
	0.4495	0.5067	0.0338
	0.4750	0.4656	0.0282
	0.3670	0.4935	0.0883
	0.4082	0.4935	0.0610
	0.4494	0.4935	0.0338
	0.4910	0.4936	0.0073
	0.3672	0.4925	0.0882
	0.3910	0.4502	0.0795
	0.4200	0.4104	0.0797
	0.4529	0.3748	0.0887
	0.3893	0.5350	0.0770
	0.4083	0.4925	0.0610
	0.4337	0.4507	0.0548
	0.4657	0.4140	0.0614
	0.4023	0.4444	0.0746
	0.4313	0.5348	0.0511
	0.4495	0.4925	0.0338
	0.4784	0.4532	0.0342
	0.3775	0.4864	0.0818
	0.4188	0.4864	0.0546
	0.4602	0.4864	0.0279
	0.4913	0.4926	0.0076
	0.3363	0.5149	0.1090
	0.3775	0.5149	0.0818
	0.4188	0.5148	0.0547
	0.4604	0.5148	0.0281
	0.3182	0.5573	0.1264
	0.3601	0.5572	0.1002
	0.4024	0.5568	0.0749
	0.4459	0.5557	0.0515
	0.3021	0.5993	0.1469
	0.3447	0.5987	0.1220
	0.3881	0.5977	0.0985
	0.4327	0.5955	0.0775
	0.2871	0.6406	0.1693
	0.3304	0.6396	0.1457
	0.3746	0.6379	0.1237
	0.4198	0.6350	0.1042
	0.3465	0.5077	0.1020
	0.3876	0.5077	0.0747
	0.4288	0.5077	0.0475
	0.4701	0.5077	0.0205
	0.3280	0.5503	0.1188
	0.3698	0.5501	0.0925
	0.4121	0.5498	0.0670
	0.4556	0.5487	0.0437
	0.3117	0.5923	0.1391
	0.3544	0.5917	0.1142
	0.3977	0.5907	0.0907
	0.4425	0.5884	0.0699
	0.2967	0.6336	0.1614
	0.3400	0.6326	0.1378
	0.3842	0.6309	0.1159
	0.4296	0.6278	0.0968
	0.3569	0.5149	0.0954
	0.3982	0.5148	0.0683
	0.4395	0.5148	0.0413
	0.4816	0.5145	0.0155
	0.3391	0.5573	0.1133
	0.3812	0.5570	0.0874
	0.4240	0.5564	0.0628
	0.4685	0.5543	0.0416
	0.3233	0.5990	0.1343
	0.3663	0.5983	0.1101
	0.4102	0.5968	0.0876
	0.4557	0.5936	0.0687
	0.3087	0.6402	0.1573
	0.3524	0.6389	0.1344
	0.3970	0.6367	0.1135
	0.4429	0.6327	0.0958
	0.3671	0.5077	0.0883
	0.4082	0.5077	0.0611
	0.4495	0.5077	0.0339
	0.4912	0.5075	0.0077
	0.3489	0.5502	0.1056
	0.3909	0.5500	0.0796
	0.4336	0.5494	0.0549
	0.4783	0.5470	0.0343
	0.3330	0.5920	0.1265
	0.3759	0.5913	0.1022
	0.4199	0.5898	0.0798
	0.4656	0.5862	0.0615
	0.3183	0.6332	0.1495
	0.3620	0.6319	0.1266
	0.4068	0.6296	0.1059
	0.4529	0.6253	0.0888
	0.3270	0.5362	0.1172
	0.3685	0.5361	0.0905
	0.4102	0.5360	0.0641
	0.4528	0.5355	0.0392
	0.3100	0.5784	0.1363
	0.3522	0.5780	0.1108
	0.3951	0.5773	0.0864
	0.4393	0.5757	0.0644
	0.2945	0.6200	0.1579
	0.3375	0.6192	0.1337
	0.3813	0.6179	0.1110
	0.4263	0.6153	0.0908
	0.2798	0.6611	0.1810
	0.3235	0.6599	0.1580
	0.3679	0.6579	0.1366
	0.4134	0.6547	0.1176
	0.3369	0.5291	0.1099
	0.3783	0.5290	0.0830
	0.4200	0.5289	0.0565
	0.4624	0.5285	0.0313
	0.3197	0.5713	0.1286
	0.3619	0.5710	0.1030
	0.4048	0.5704	0.0785
	0.4490	0.5686	0.0567
	0.3041	0.6130	0.1500
	0.3471	0.6122	0.1258
	0.3909	0.6109	0.1032
	0.4360	0.6081	0.0833
	0.2894	0.6541	0.1731
	0.3331	0.6529	0.1501
	0.3776	0.6509	0.1288
	0.4232	0.6474	0.1103
	0.3477	0.5361	0.1038
	0.3893	0.5361	0.0772
	0.4313	0.5358	0.0514
	0.4749	0.5345	0.0283
	0.3311	0.5782	0.1235
	0.3736	0.5778	0.0984
	0.4170	0.5767	0.0750
	0.4621	0.5739	0.0551
	0.3159	0.6197	0.1456
	0.3593	0.6186	0.1221
	0.4036	0.6168	0.1005
	0.4493	0.6132	0.0822
	0.3016	0.6606	0.1693
	0.3456	0.6590	0.1470
	0.3905	0.6565	0.1267
	0.4366	0.6523	0.1095
	0.3576	0.5291	0.0964
	0.3991	0.5290	0.0696
	0.4410	0.5288	0.0436
	0.4847	0.5274	0.0208
	0.3407	0.5712	0.1157
	0.3832	0.5708	0.0906
	0.4266	0.5697	0.0671
	0.4719	0.5666	0.0479
	0.3255	0.6127	0.1378
	0.3689	0.6117	0.1142
	0.4133	0.6097	0.0928
	0.4592	0.6057	0.0752
	0.3112	0.6536	0.1614
	0.3553	0.6520	0.1392
	0.4003	0.6494	0.1191
	0.4465	0.6449	0.1024
	0.2727	0.6815	0.1929
	0.3167	0.6800	0.1704
	0.3614	0.6778	0.1496
	0.4070	0.6744	0.1311
	0.2589	0.7221	0.2174
	0.3032	0.7202	0.1959
	0.3483	0.7175	0.1759
	0.3942	0.7136	0.1581
	0.2453	0.7623	0.2425
	0.2900	0.7601	0.2217
	0.3354	0.7570	0.2025
	0.3814	0.7529	0.1852
	0.2319	0.8024	0.2681
	0.2769	0.7998	0.2479
	0.3225	0.7965	0.2292
	0.3687	0.7921	0.2124
	0.2824	0.6745	0.1850
	0.3263	0.6730	0.1626
	0.3711	0.6707	0.1419
	0.4168	0.6671	0.1238
	0.2685	0.7151	0.2096
	0.3129	0.7131	0.1881
	0.3581	0.7104	0.1683
	0.4041	0.7063	0.1509
	0.2550	0.7553	0.2347
	0.2997	0.7530	0.2140
	0.3451	0.7499	0.1950
	0.3913	0.7455	0.1781
	0.2416	0.7954	0.2603
	0.2866	0.7927	0.2403
	0.3323	0.7893	0.2218
	0.3786	0.7847	0.2053
	0.2946	0.6808	0.1815
	0.3389	0.6791	0.1598
	0.3840	0.6763	0.1400
	0.4302	0.6719	0.1231
	0.2810	0.7212	0.2065
	0.3257	0.7190	0.1856
	0.3712	0.7157	0.1667
	0.4175	0.7111	0.1503
	0.2676	0.7613	0.2320
	0.3126	0.7587	0.2119
	0.3583	0.7551	0.1936
	0.4048	0.7502	0.1776
	0.2544	0.8012	0.2578
	0.2996	0.7983	0.2384
	0.3455	0.7944	0.2205
	0.3920	0.7893	0.2048
	0.3043	0.6739	0.1737
	0.3486	0.6720	0.1520
	0.3938	0.6691	0.1325
	0.4401	0.6644	0.1161
	0.2906	0.7142	0.1987
	0.3354	0.7119	0.1780
	0.3810	0.7085	0.1593
	0.4274	0.7036	0.1434
	0.2773	0.7543	0.2242
	0.3223	0.7516	0.2043
	0.3681	0.7479	0.1862
	0.4147	0.7427	0.1706
	0.2641	0.7941	0.2501
	0.3094	0.7911	0.2308
	0.3553	0.7871	0.2133
	0.4020	0.7818	0.1979
	0.2658	0.7018	0.2051
	0.3099	0.7001	0.1831
	0.3548	0.6977	0.1627
	0.4006	0.6940	0.1446
	0.2521	0.7422	0.2299
	0.2966	0.7402	0.2087
	0.3418	0.7373	0.1892
	0.3878	0.7332	0.1717
	0.2386	0.7824	0.2553
	0.2835	0.7800	0.2348
	0.3289	0.7768	0.2158
	0.3751	0.7725	0.1988
	0.2253	0.8224	0.2810
	0.2704	0.8197	0.2611
	0.3161	0.8162	0.2426
	0.3623	0.8116	0.2260
	0.2754	0.6948	0.1972
	0.3196	0.6931	0.1753
	0.3646	0.6906	0.1551
	0.4104	0.6867	0.1373
	0.2617	0.7352	0.2221
	0.3063	0.7331	0.2010
	0.3516	0.7301	0.1816
	0.3977	0.7259	0.1645
	0.2483	0.7754	0.2475
	0.2932	0.7729	0.2271
	0.3387	0.7696	0.2084
	0.3849	0.7651	0.1917
	0.2350	0.8153	0.2732
	0.2801	0.8126	0.2535
	0.3259	0.8089	0.2352
	0.3722	0.8042	0.2189
	0.2878	0.7011	0.1939
	0.3323	0.6990	0.1727
	0.3776	0.6960	0.1533
	0.4238	0.6915	0.1367
	0.2743	0.7413	0.2192
	0.3191	0.7388	0.1987
	0.3647	0.7354	0.1801
	0.4111	0.7306	0.1639
	0.2610	0.7813	0.2449
	0.3061	0.7785	0.2251
	0.3519	0.7748	0.2070
	0.3984	0.7698	0.1912
	0.2478	0.8211	0.2708
	0.2932	0.8180	0.2517
	0.3391	0.8141	0.2341
	0.3857	0.8089	0.2185
	0.2974	0.6941	0.1861
	0.3420	0.6920	0.1649
	0.3874	0.6888	0.1458
	0.4338	0.6840	0.1297
	0.2839	0.7342	0.2114
	0.3289	0.7317	0.1911
	0.3745	0.7282	0.1727
	0.4210	0.7231	0.1570
	0.2706	0.7742	0.2371
	0.3159	0.7714	0.2175
	0.3617	0.7675	0.1997
	0.4083	0.7623	0.1843
	0.2575	0.8140	0.2632
	0.3029	0.8109	0.2441
	0.3490	0.8068	0.2268
	0.3956	0.8014	0.2116
	0.4602	0.3509	0.1024
	0.4949	0.3202	0.1193
	0.5298	0.2918	0.1395
	0.5645	0.2647	0.1619
	0.4729	0.3900	0.0751
	0.5077	0.3600	0.0930
	0.5425	0.3325	0.1146
	0.5769	0.3062	0.1383
	0.4856	0.4292	0.0479
	0.5204	0.4003	0.0675
	0.5549	0.3740	0.0911
	0.5890	0.3488	0.1164
	0.4983	0.4685	0.0209
	0.5328	0.4420	0.0442
	0.5665	0.4173	0.0704
	0.6000	0.3929	0.0972
	0.4638	0.3391	0.1094
	0.4986	0.3087	0.1269
	0.5335	0.2804	0.1473
	0.5682	0.2534	0.1697
	0.4765	0.3782	0.0822
	0.5114	0.3486	0.1007
	0.5461	0.3212	0.1225
	0.5806	0.2949	0.1462
	0.4893	0.4175	0.0552
	0.5241	0.3890	0.0753
	0.5586	0.3627	0.0990
	0.5927	0.3374	0.1241
	0.5020	0.4571	0.0285
	0.5365	0.4307	0.0520
	0.5703	0.4058	0.0780
	0.6039	0.3813	0.1046
	0.4775	0.3352	0.1103
	0.5124	0.3058	0.1291
	0.5472	0.2781	0.1505
	0.5818	0.2514	0.1736
	0.4902	0.3746	0.0834
	0.5251	0.3460	0.1035
	0.5597	0.3192	0.1263
	0.5941	0.2934	0.1506
	0.5030	0.4142	0.0569
	0.5377	0.3870	0.0790
	0.5720	0.3613	0.1036
	0.6059	0.3363	0.1293
	0.5157	0.4548	0.0318
	0.5497	0.4296	0.0572
	0.5833	0.4051	0.0838
	0.6167	0.3807	0.1107
	0.4812	0.3236	0.1177
	0.5161	0.2944	0.1368
	0.5508	0.2668	0.1583
	0.5854	0.2401	0.1814
	0.4939	0.3631	0.0909
	0.5288	0.3347	0.1113
	0.5634	0.3079	0.1342
	0.5977	0.2821	0.1584
	0.5067	0.4028	0.0646
	0.5414	0.3757	0.0869
	0.5756	0.3500	0.1114
	0.6096	0.3249	0.1370
	0.5194	0.4435	0.0396
	0.5534	0.4182	0.0648
	0.5871	0.3935	0.0912
	0.6206	0.3691	0.1181
	0.4665	0.3705	0.0887
	0.5013	0.3401	0.1061
	0.5361	0.3120	0.1270
	0.5707	0.2853	0.1499
	0.4792	0.4096	0.0615
	0.5141	0.3801	0.0801
	0.5487	0.3531	0.1027
	0.5830	0.3273	0.1271
	0.4919	0.4488	0.0344
	0.5267	0.4209	0.0554
	0.5609	0.3954	0.0803
	0.5947	0.3706	0.1064
	0.5047	0.4887	0.0081
	0.5382	0.4642	0.0348
	0.5716	0.4399	0.0620
	0.6049	0.4157	0.0892
	0.4702	0.3586	0.0958
	0.5050	0.3286	0.1137
	0.5398	0.3007	0.1348
	0.5744	0.2740	0.1578
	0.4829	0.3979	0.0687
	0.5177	0.3687	0.0879
	0.5524	0.3418	0.1105
	0.5867	0.3160	0.1349
	0.4956	0.4372	0.0417
	0.5304	0.4096	0.0633
	0.5646	0.3840	0.0880
	0.5984	0.3591	0.1140
	0.5083	0.4774	0.0160
	0.5421	0.4526	0.0421
	0.5755	0.4282	0.0691
	0.6089	0.4040	0.0963
	0.4839	0.3549	0.0968
	0.5187	0.3258	0.1162
	0.5535	0.2986	0.1383
	0.5879	0.2723	0.1619
	0.4966	0.3944	0.0701
	0.5314	0.3664	0.0911
	0.5659	0.3401	0.1147
	0.6001	0.3147	0.1397
	0.5094	0.4343	0.0440
	0.5438	0.4080	0.0676
	0.5778	0.3829	0.0932
	0.6115	0.3583	0.1196
	0.5215	0.4763	0.0212
	0.5549	0.4520	0.0484
	0.5882	0.4278	0.0756
	0.6215	0.4036	0.1029
	0.4875	0.3433	0.1043
	0.5224	0.3145	0.1240
	0.5571	0.2873	0.1461
	0.5916	0.2610	0.1698
	0.5003	0.3829	0.0777
	0.5351	0.3551	0.0989
	0.5696	0.3288	0.1226
	0.6038	0.3033	0.1475
	0.5131	0.4230	0.0518
	0.5475	0.3967	0.0754
	0.5815	0.3715	0.1009
	0.6153	0.3468	0.1272
	0.5253	0.4648	0.0288
	0.5588	0.4404	0.0556
	0.5922	0.4161	0.0827
	0.6255	0.3919	0.1099
	0.5046	0.5115	0.0082
	0.5419	0.4878	0.0289
	0.5755	0.4634	0.0557
	0.6089	0.4392	0.0827
	0.4919	0.5513	0.0345
	0.5382	0.5360	0.0348
	0.5777	0.5124	0.0522
	0.6135	0.4877	0.0757
	0.4791	0.5905	0.0616
	0.5266	0.5793	0.0555
	0.5715	0.5602	0.0620
	0.6119	0.5369	0.0781
	0.4664	0.6297	0.0889
	0.5140	0.6201	0.0802
	0.5608	0.6047	0.0803
	0.6048	0.5844	0.0893
	0.5127	0.5001	0.0084
	0.5466	0.4757	0.0348
	0.5799	0.4515	0.0620
	0.6132	0.4273	0.0893
	0.5019	0.5431	0.0286
	0.5465	0.5245	0.0349
	0.5840	0.5001	0.0557
	0.6188	0.4754	0.0805
	0.4892	0.5826	0.0553
	0.5364	0.5695	0.0520
	0.5799	0.5487	0.0620
	0.6188	0.5247	0.0805
	0.4764	0.6219	0.0823
	0.5240	0.6111	0.0754
	0.5702	0.5943	0.0780
	0.6132	0.5729	0.0893
	0.5246	0.5001	0.0163
	0.5588	0.4756	0.0422
	0.5922	0.4513	0.0692
	0.6256	0.4271	0.0963
	0.5156	0.5454	0.0318
	0.5587	0.5246	0.0422
	0.5959	0.5001	0.0636
	0.6308	0.4754	0.0883
	0.5029	0.5859	0.0570
	0.5496	0.5706	0.0572
	0.5922	0.5488	0.0692
	0.6308	0.5247	0.0883
	0.4901	0.6255	0.0835
	0.5376	0.6131	0.0791
	0.5832	0.5951	0.0838
	0.6255	0.5731	0.0963
	0.5298	0.4878	0.0214
	0.5632	0.4636	0.0484
	0.5966	0.4394	0.0756
	0.6299	0.4152	0.1029
	0.5253	0.5354	0.0288
	0.5658	0.5124	0.0444
	0.6016	0.4877	0.0679
	0.6359	0.4632	0.0934
	0.5130	0.5772	0.0519
	0.5588	0.5598	0.0556
	0.5998	0.5369	0.0706
	0.6372	0.5124	0.0914
	0.5002	0.6172	0.0778
	0.5475	0.6035	0.0755
	0.5922	0.5840	0.0827
	0.6334	0.5612	0.0973
	0.4983	0.5316	0.0210
	0.5419	0.5124	0.0290
	0.5777	0.4878	0.0522
	0.6119	0.4632	0.0781
	0.4855	0.5709	0.0480
	0.5327	0.5581	0.0443
	0.5755	0.5367	0.0557
	0.6135	0.5124	0.0757
	0.4728	0.6101	0.0752
	0.5203	0.5998	0.0676
	0.5665	0.5829	0.0705
	0.6089	0.5610	0.0828
	0.4600	0.6492	0.1025
	0.5076	0.6401	0.0931
	0.5548	0.6261	0.0912
	0.6000	0.6073	0.0972
	0.5083	0.5228	0.0161
	0.5484	0.5001	0.0321
	0.5829	0.4755	0.0573
	0.6166	0.4511	0.0839
	0.4956	0.5629	0.0418
	0.5421	0.5476	0.0421
	0.5829	0.5247	0.0574
	0.6196	0.5002	0.0793
	0.4828	0.6023	0.0688
	0.5303	0.5906	0.0633
	0.5755	0.5719	0.0691
	0.6166	0.5490	0.0839
	0.4701	0.6415	0.0959
	0.5177	0.6314	0.0880
	0.5645	0.6161	0.0881
	0.6088	0.5961	0.0963
	0.5215	0.5239	0.0213
	0.5602	0.5001	0.0400
	0.5949	0.4755	0.0650
	0.6288	0.4510	0.0914
	0.5093	0.5658	0.0441
	0.5549	0.5481	0.0484
	0.5949	0.5247	0.0650
	0.6315	0.5002	0.0872
	0.4965	0.6058	0.0702
	0.5438	0.5921	0.0677
	0.5882	0.5723	0.0756
	0.6287	0.5491	0.0914
	0.4838	0.6452	0.0969
	0.5314	0.6338	0.0911
	0.5777	0.6172	0.0933
	0.6214	0.5965	0.1029
	0.5298	0.5123	0.0214
	0.5658	0.4878	0.0444
	0.5998	0.4633	0.0705
	0.6334	0.4389	0.0973
	0.5193	0.5567	0.0397
	0.5632	0.5366	0.0484
	0.6016	0.5124	0.0679
	0.6372	0.4877	0.0914
	0.5066	0.5973	0.0647
	0.5534	0.5820	0.0649
	0.5965	0.5608	0.0757
	0.6359	0.5370	0.0934
	0.4938	0.6371	0.0910
	0.5413	0.6244	0.0870
	0.5870	0.6066	0.0913
	0.6298	0.5850	0.1029
	0.4537	0.6688	0.1161
	0.5012	0.6601	0.1062
	0.5486	0.6470	0.1027
	0.5946	0.6295	0.1064
	0.4410	0.7079	0.1434
	0.4884	0.6997	0.1327
	0.5360	0.6881	0.1270
	0.5829	0.6728	0.1271
	0.4282	0.7471	0.1707
	0.4756	0.7391	0.1595
	0.5233	0.7285	0.1524
	0.5706	0.7148	0.1500
	0.4155	0.7862	0.1979
	0.4629	0.7785	0.1864
	0.5105	0.7685	0.1783
	0.5581	0.7560	0.1741
	0.4637	0.6611	0.1095
	0.5113	0.6515	0.1008
	0.5585	0.6374	0.0990
	0.6038	0.6188	0.1046
	0.4510	0.7002	0.1368
	0.4985	0.6914	0.1270
	0.5460	0.6790	0.1226
	0.5926	0.6627	0.1242
	0.4382	0.7394	0.1640
	0.4857	0.7310	0.1535
	0.5334	0.7197	0.1474
	0.5805	0.7052	0.1462
	0.4255	0.7785	0.1913
	0.4729	0.7705	0.1803
	0.5206	0.7600	0.1730
	0.5680	0.7468	0.1698
	0.4774	0.6649	0.1104
	0.5250	0.6541	0.1036
	0.5719	0.6388	0.1037
	0.6167	0.6194	0.1107
	0.4646	0.7042	0.1375
	0.5123	0.6943	0.1292
	0.5596	0.6809	0.1263
	0.6058	0.6638	0.1294
	0.4519	0.7434	0.1646
	0.4995	0.7342	0.1553
	0.5471	0.7220	0.1506
	0.5940	0.7067	0.1506
	0.4391	0.7826	0.1918
	0.4867	0.7738	0.1819
	0.5343	0.7626	0.1757
	0.5816	0.7487	0.1736
	0.4874	0.6568	0.1044
	0.5350	0.6451	0.0990
	0.5815	0.6286	0.1010
	0.6255	0.6082	0.1099
	0.4747	0.6962	0.1312
	0.5223	0.6857	0.1240
	0.5695	0.6713	0.1226
	0.6152	0.6533	0.1272
	0.4619	0.7355	0.1583
	0.5096	0.7257	0.1499
	0.5570	0.7129	0.1462
	0.6037	0.6968	0.1475
	0.4492	0.7748	0.1854
	0.4968	0.7655	0.1761
	0.5444	0.7537	0.1708
	0.5915	0.7391	0.1698
	0.4473	0.6884	0.1297
	0.4948	0.6799	0.1194
	0.5424	0.6677	0.1147
	0.5889	0.6514	0.1164
	0.4346	0.7275	0.1570
	0.4820	0.7194	0.1460
	0.5297	0.7084	0.1396
	0.5768	0.6939	0.1384
	0.4219	0.7666	0.1843
	0.4693	0.7588	0.1729
	0.5169	0.7486	0.1653
	0.5644	0.7355	0.1619
	0.4092	0.8058	0.2116
	0.4565	0.7982	0.1999
	0.5041	0.7885	0.1914
	0.5517	0.7764	0.1865
	0.4573	0.6807	0.1231
	0.5049	0.6715	0.1138
	0.5523	0.6583	0.1106
	0.5983	0.6410	0.1140
	0.4446	0.7198	0.1504
	0.4921	0.7112	0.1402
	0.5397	0.6994	0.1349
	0.5866	0.6841	0.1350
	0.4319	0.7590	0.1776
	0.4793	0.7507	0.1669
	0.5270	0.7399	0.1601
	0.5743	0.7261	0.1579
	0.4191	0.7981	0.2049
	0.4666	0.7901	0.1937
	0.5142	0.7800	0.1859
	0.5617	0.7673	0.1820
	0.4710	0.6846	0.1239
	0.5186	0.6743	0.1163
	0.5658	0.6600	0.1148
	0.6114	0.6418	0.1196
	0.4583	0.7238	0.1510
	0.5059	0.7143	0.1422
	0.5534	0.7016	0.1383
	0.6000	0.6854	0.1397
	0.4455	0.7630	0.1782
	0.4931	0.7540	0.1686
	0.5407	0.7424	0.1630
	0.5878	0.7278	0.1620
	0.4328	0.8022	0.2054
	0.4803	0.7936	0.1952
	0.5280	0.7827	0.1885
	0.5754	0.7693	0.1855
	0.4811	0.6765	0.1178
	0.5287	0.6654	0.1114
	0.5756	0.6501	0.1115
	0.6205	0.6310	0.1181
	0.4683	0.7159	0.1447
	0.5159	0.7057	0.1369
	0.5633	0.6922	0.1342
	0.6095	0.6752	0.1371
	0.4555	0.7551	0.1718
	0.5032	0.7457	0.1630
	0.5507	0.7334	0.1584
	0.5976	0.7181	0.1585
	0.4428	0.7944	0.1989
	0.4904	0.7854	0.1894
	0.5380	0.7739	0.1835
	0.5853	0.7600	0.1815
	0.5990	0.2384	0.1855
	0.6332	0.2127	0.2101
	0.6673	0.1874	0.2352
	0.7013	0.1623	0.2608
	0.6111	0.2807	0.1631
	0.6451	0.2555	0.1886
	0.6790	0.2306	0.2145
	0.7127	0.2059	0.2407
	0.6228	0.3239	0.1424
	0.6565	0.2993	0.1688
	0.6900	0.2748	0.1954
	0.7235	0.2504	0.2223
	0.6334	0.3686	0.1242
	0.6668	0.3443	0.1514
	0.7001	0.3201	0.1785
	0.7335	0.2958	0.2057
	0.6026	0.2271	0.1934
	0.6369	0.2014	0.2179
	0.6710	0.1760	0.2430
	0.7050	0.1509	0.2685
	0.6148	0.2693	0.1709
	0.6488	0.2442	0.1963
	0.6827	0.2192	0.2222
	0.7165	0.1945	0.2484
	0.6265	0.3125	0.1500
	0.6602	0.2878	0.1764
	0.6938	0.2633	0.2029
	0.7274	0.2389	0.2297
	0.6373	0.3570	0.1315
	0.6707	0.3327	0.1586
	0.7041	0.3084	0.1857
	0.7374	0.2842	0.2128
	0.6161	0.2255	0.1977
	0.6503	0.2000	0.2226
	0.6843	0.1748	0.2480
	0.7183	0.1498	0.2737
	0.6282	0.2681	0.1758
	0.6621	0.2431	0.2015
	0.6959	0.2183	0.2276
	0.7296	0.1936	0.2539
	0.6396	0.3116	0.1555
	0.6732	0.2871	0.1821
	0.7068	0.2626	0.2088
	0.7403	0.2382	0.2357
	0.6501	0.3564	0.1378
	0.6835	0.3322	0.1649
	0.7168	0.3080	0.1921
	0.7501	0.2837	0.2193
	0.6198	0.2142	0.2056
	0.6540	0.1887	0.2304
	0.6880	0.1634	0.2557
	0.7220	0.1384	0.2814
	0.6319	0.2567	0.1836
	0.6658	0.2317	0.2092
	0.6996	0.2068	0.2353
	0.7333	0.1822	0.2615
	0.6434	0.3001	0.1632
	0.6770	0.2756	0.1896
	0.7106	0.2511	0.2163
	0.7441	0.2267	0.2431
	0.6540	0.3448	0.1450
	0.6874	0.3205	0.1721
	0.7208	0.2963	0.1993
	0.7541	0.2720	0.2264
	0.6051	0.2594	0.1741
	0.6392	0.2340	0.1991
	0.6732	0.2089	0.2247
	0.7071	0.1840	0.2506
	0.6170	0.3021	0.1525
	0.6509	0.2773	0.1784
	0.6846	0.2526	0.2047
	0.7182	0.2281	0.2313
	0.6283	0.3461	0.1329
	0.6618	0.3216	0.1597
	0.6952	0.2973	0.1867
	0.7286	0.2730	0.2137
	0.6381	0.3915	0.1165
	0.6714	0.3673	0.1438
	0.7047	0.3431	0.1711
	0.7380	0.3190	0.1983
	0.6088	0.2481	0.1820
	0.6429	0.2227	0.2070
	0.6769	0.1975	0.2324
	0.7108	0.1726	0.2583
	0.6208	0.2908	0.1602
	0.6546	0.2659	0.1861
	0.6884	0.2412	0.2123
	0.7220	0.2166	0.2388
	0.6321	0.3345	0.1404
	0.6656	0.3101	0.1671
	0.6991	0.2857	0.1940
	0.7325	0.2614	0.2210
	0.6422	0.3798	0.1235
	0.6755	0.3556	0.1508
	0.7088	0.3314	0.1780
	0.7421	0.3072	0.2053
	0.6222	0.2467	0.1866
	0.6562	0.2214	0.2119
	0.6902	0.1964	0.2376
	0.7240	0.1716	0.2637
	0.6340	0.2897	0.1654
	0.6678	0.2649	0.1916
	0.7014	0.2403	0.2180
	0.7350	0.2158	0.2446
	0.6450	0.3338	0.1463
	0.6785	0.3095	0.1732
	0.7119	0.2851	0.2002
	0.7453	0.2609	0.2273
	0.6548	0.3794	0.1301
	0.6881	0.3552	0.1574
	0.7214	0.3311	0.1847
	0.7546	0.3069	0.2120
	0.6259	0.2353	0.1944
	0.6599	0.2101	0.2196
	0.6939	0.1851	0.2453
	0.7277	0.1602	0.2713
	0.6377	0.2783	0.1731
	0.6715	0.2535	0.1992
	0.7052	0.2288	0.2256
	0.7388	0.2043	0.2521
	0.6489	0.3223	0.1538
	0.6824	0.2979	0.1806
	0.7158	0.2735	0.2075
	0.7492	0.2492	0.2345
	0.6588	0.3677	0.1371
	0.6921	0.3435	0.1644
	0.7254	0.3193	0.1916
	0.7587	0.2951	0.2189
	0.6422	0.4150	0.1099
	0.6756	0.3908	0.1372
	0.7089	0.3665	0.1644
	0.7422	0.3424	0.1917
	0.6479	0.4632	0.1011
	0.6819	0.4387	0.1273
	0.7156	0.4143	0.1539
	0.7491	0.3900	0.1807
	0.6491	0.5124	0.0993
	0.6848	0.4877	0.1228
	0.7196	0.4631	0.1477
	0.7539	0.4385	0.1733
	0.6455	0.5613	0.1047
	0.6838	0.5370	0.1244
	0.7204	0.5124	0.1464
	0.7561	0.4877	0.1701
	0.6465	0.4031	0.1165
	0.6798	0.3789	0.1438
	0.7131	0.3547	0.1711
	0.7464	0.3305	0.1984
	0.6529	0.4509	0.1065
	0.6866	0.4265	0.1330
	0.7202	0.4022	0.1598
	0.7537	0.3779	0.1868
	0.6552	0.5002	0.1030
	0.6904	0.4754	0.1273
	0.7249	0.4508	0.1527
	0.7590	0.4263	0.1786
	0.6529	0.5492	0.1065
	0.6904	0.5247	0.1273
	0.7265	0.5003	0.1502
	0.7617	0.4754	0.1744
	0.6589	0.4029	0.1235
	0.6922	0.3787	0.1508
	0.7255	0.3544	0.1780
	0.7588	0.3303	0.2053
	0.6649	0.4509	0.1141
	0.6987	0.4265	0.1406
	0.7324	0.4021	0.1673
	0.7659	0.3778	0.1941
	0.6671	0.5002	0.1108
	0.7023	0.4754	0.1352
	0.7368	0.4508	0.1604
	0.7710	0.4263	0.1863
	0.6649	0.5492	0.1142
	0.7023	0.5247	0.1352
	0.7383	0.5003	0.1581
	0.7736	0.4754	0.1822
	0.6631	0.3910	0.1302
	0.6964	0.3668	0.1574
	0.7297	0.3426	0.1847
	0.7630	0.3184	0.2120
	0.6698	0.4387	0.1197
	0.7034	0.4144	0.1464
	0.7370	0.3900	0.1733
	0.7704	0.3658	0.2003
	0.6729	0.4877	0.1150
	0.7077	0.4631	0.1399
	0.7420	0.4385	0.1656
	0.7759	0.4140	0.1917
	0.6718	0.5370	0.1166
	0.7085	0.5124	0.1386
	0.7442	0.4877	0.1622
	0.7792	0.4630	0.1868
	0.6456	0.4389	0.1047
	0.6791	0.4145	0.1316
	0.7125	0.3903	0.1586
	0.7459	0.3660	0.1857
	0.6491	0.4877	0.0993
	0.6838	0.4631	0.1243
	0.7180	0.4386	0.1502
	0.7518	0.4141	0.1765
	0.6479	0.5370	0.1011
	0.6848	0.5124	0.1228
	0.7204	0.4877	0.1464
	0.7553	0.4631	0.1711
	0.6422	0.5852	0.1099
	0.6818	0.5614	0.1273
	0.7196	0.5370	0.1477
	0.7561	0.5124	0.1700
	0.6501	0.4268	0.1108
	0.6835	0.4025	0.1379
	0.7169	0.3783	0.1650
	0.7503	0.3541	0.1922
	0.6546	0.4754	0.1039
	0.6889	0.4509	0.1295
	0.7229	0.4264	0.1557
	0.7566	0.4020	0.1822
	0.6546	0.5247	0.1039
	0.6908	0.5002	0.1266
	0.7261	0.4754	0.1508
	0.7607	0.4508	0.1760
	0.6501	0.5733	0.1108
	0.6889	0.5493	0.1295
	0.7261	0.5247	0.1508
	0.7621	0.5003	0.1739
	0.6623	0.4267	0.1181
	0.6958	0.4024	0.1451
	0.7292	0.3781	0.1722
	0.7626	0.3539	0.1993
	0.6665	0.4754	0.1117
	0.7009	0.4508	0.1372
	0.7349	0.4263	0.1633
	0.7687	0.4019	0.1897
	0.6665	0.5247	0.1117
	0.7027	0.5003	0.1345
	0.7380	0.4754	0.1587
	0.7726	0.4508	0.1838
	0.6623	0.5734	0.1182
	0.7009	0.5493	0.1372
	0.7380	0.5247	0.1587
	0.7740	0.5003	0.1817
	0.6668	0.4147	0.1243
	0.7002	0.3904	0.1514
	0.7336	0.3662	0.1786
	0.7669	0.3420	0.2058
	0.6718	0.4631	0.1166
	0.7059	0.4386	0.1425
	0.7398	0.4142	0.1689
	0.7734	0.3898	0.1956
	0.6729	0.5124	0.1150
	0.7086	0.4877	0.1386
	0.7434	0.4631	0.1633
	0.7779	0.4385	0.1888
	0.6698	0.5614	0.1197
	0.7077	0.5370	0.1399
	0.7442	0.5124	0.1622
	0.7798	0.4877	0.1858
	0.6381	0.6086	0.1165
	0.6790	0.5856	0.1316
	0.7179	0.5615	0.1502
	0.7553	0.5370	0.1711
	0.6282	0.6541	0.1329
	0.6714	0.6328	0.1438
	0.7125	0.6098	0.1586
	0.7518	0.5860	0.1765
	0.6170	0.6980	0.1525
	0.6617	0.6785	0.1597
	0.7046	0.6569	0.1711
	0.7458	0.6341	0.1857
	0.6050	0.7407	0.1742
	0.6508	0.7228	0.1785
	0.6951	0.7028	0.1867
	0.7379	0.6811	0.1983
	0.6465	0.5971	0.1165
	0.6866	0.5736	0.1330
	0.7248	0.5493	0.1527
	0.7617	0.5247	0.1744
	0.6373	0.6432	0.1316
	0.6797	0.6212	0.1438
	0.7202	0.5979	0.1598
	0.7589	0.5738	0.1786
	0.6264	0.6876	0.1501
	0.6707	0.6674	0.1586
	0.7130	0.6454	0.1711
	0.7537	0.6222	0.1868
	0.6147	0.7308	0.1709
	0.6601	0.7123	0.1764
	0.7040	0.6917	0.1857
	0.7463	0.6696	0.1984
	0.6589	0.5973	0.1236
	0.6987	0.5736	0.1406
	0.7368	0.5493	0.1604
	0.7736	0.5247	0.1822
	0.6501	0.6437	0.1378
	0.6922	0.6215	0.1508
	0.7323	0.5980	0.1673
	0.7710	0.5738	0.1863
	0.6395	0.6885	0.1556
	0.6834	0.6679	0.1649
	0.7255	0.6456	0.1780
	0.7659	0.6223	0.1941
	0.6281	0.7320	0.1758
	0.6732	0.7130	0.1821
	0.7167	0.6921	0.1921
	0.7587	0.6698	0.2053
	0.6668	0.5855	0.1243
	0.7059	0.5615	0.1426
	0.7434	0.5370	0.1633
	0.7798	0.5124	0.1858
	0.6588	0.6324	0.1371
	0.7002	0.6097	0.1514
	0.7397	0.5859	0.1689
	0.7778	0.5616	0.1888
	0.6488	0.6778	0.1538
	0.6921	0.6566	0.1644
	0.7335	0.6339	0.1786
	0.7734	0.6103	0.1956
	0.6376	0.7218	0.1731
	0.6823	0.7022	0.1806
	0.7254	0.6808	0.1916
	0.7669	0.6581	0.2058
	0.6334	0.6315	0.1243
	0.6755	0.6094	0.1372
	0.7155	0.5858	0.1539
	0.7539	0.5616	0.1733
	0.6227	0.6762	0.1424
	0.6667	0.6558	0.1514
	0.7088	0.6335	0.1644
	0.7491	0.6101	0.1807
	0.6110	0.7194	0.1631
	0.6564	0.7008	0.1688
	0.7001	0.6800	0.1785
	0.7421	0.6577	0.1917
	0.5989	0.7617	0.1856
	0.6450	0.7446	0.1886
	0.6899	0.7253	0.1955
	0.7334	0.7042	0.2057
	0.6421	0.6203	0.1235
	0.6835	0.5976	0.1379
	0.7229	0.5737	0.1557
	0.7607	0.5493	0.1760
	0.6320	0.6656	0.1405
	0.6754	0.6445	0.1508
	0.7169	0.6218	0.1650
	0.7566	0.5981	0.1822
	0.6207	0.7093	0.1603
	0.6655	0.6900	0.1672
	0.7087	0.6687	0.1780
	0.7502	0.6460	0.1922
	0.6087	0.7520	0.1820
	0.6545	0.7342	0.1861
	0.6990	0.7144	0.1940
	0.7420	0.6929	0.2053
	0.6547	0.6207	0.1302
	0.6958	0.5977	0.1451
	0.7349	0.5737	0.1633
	0.7726	0.5493	0.1838
	0.6450	0.6663	0.1463
	0.6880	0.6449	0.1574
	0.7292	0.6219	0.1722
	0.7687	0.5982	0.1897
	0.6339	0.7104	0.1654
	0.6784	0.6906	0.1732
	0.7213	0.6690	0.1847
	0.7625	0.6462	0.1993
	0.6221	0.7534	0.1866
	0.6677	0.7352	0.1916
	0.7119	0.7149	0.2002
	0.7546	0.6932	0.2120
	0.6631	0.6091	0.1302
	0.7034	0.5857	0.1464
	0.7419	0.5616	0.1656
	0.7792	0.5370	0.1868
	0.6540	0.6553	0.1451
	0.6964	0.6333	0.1574
	0.7369	0.6100	0.1733
	0.7759	0.5860	0.1917
	0.6433	0.7000	0.1632
	0.6873	0.6796	0.1721
	0.7297	0.6575	0.1847
	0.7704	0.6343	0.2003
	0.6318	0.7434	0.1836
	0.6770	0.7245	0.1896
	0.7207	0.7038	0.1993
	0.7629	0.6817	0.2120
