generated by phonopy
   1.0
    23.0012638646112713  -13.2806423261883602   -0.0001854237797280
     0.0000000000000000   26.5599999747167530    0.0011588986229520
     0.0000000000000000    0.0000000000000000    7.2882000000000007
P
 128
Direct
  0.0413169041433284  0.0823608878033330  0.4427664719517773
  0.1663169041433284  0.0823608878033330  0.4427664719517773
  0.2913169041433284  0.0823608878033330  0.4427664719517773
  0.4163169041433284  0.0823608878033330  0.4427664719517773
  0.5413169041433284  0.0823608878033330  0.4427664719517773
  0.6663169041433284  0.0823608878033330  0.4427664719517773
  0.7913169041433284  0.0823608878033330  0.4427664719517773
  0.9163169041433284  0.0823608878033330  0.4427664719517773
  0.0413169041433284  0.2073608878033330  0.4427664719517773
  0.1663169041433284  0.2073608878033330  0.4427664719517773
  0.2913169041433284  0.2073608878033330  0.4427664719517773
  0.4163169041433284  0.2073608878033330  0.4427664719517773
  0.5413169041433284  0.2073608878033330  0.4427664719517773
  0.6663169041433284  0.2073608878033330  0.4427664719517773
  0.7913169041433284  0.2073608878033330  0.4427664719517773
  0.9163169041433284  0.2073608878033330  0.4427664719517773
  0.0413169041433284  0.3323608878033331  0.4427664719517773
  0.1663169041433284  0.3323608878033331  0.4427664719517773
  0.2913169041433284  0.3323608878033331  0.4427664719517773
  0.4163169041433284  0.3323608878033331  0.4427664719517773
  0.5413169041433284  0.3323608878033331  0.4427664719517773
  0.6663169041433284  0.3323608878033331  0.4427664719517773
  0.7913169041433284  0.3323608878033331  0.4427664719517773
  0.9163169041433284  0.3323608878033331  0.4427664719517773
  0.0413169041433284  0.4573608878033331  0.4427664719517773
  0.1663169041433284  0.4573608878033331  0.4427664719517773
  0.2913169041433284  0.4573608878033331  0.4427664719517773
  0.4163169041433284  0.4573608878033331  0.4427664719517773
  0.5413169041433284  0.4573608878033331  0.4427664719517773
  0.6663169041433284  0.4573608878033331  0.4427664719517773
  0.7913169041433284  0.4573608878033331  0.4427664719517773
  0.9163169041433284  0.4573608878033331  0.4427664719517773
  0.0413169041433284  0.5823608878033331  0.4427664719517773
  0.1663169041433284  0.5823608878033331  0.4427664719517773
  0.2913169041433284  0.5823608878033331  0.4427664719517773
  0.4163169041433284  0.5823608878033331  0.4427664719517773
  0.5413169041433284  0.5823608878033331  0.4427664719517773
  0.6663169041433284  0.5823608878033331  0.4427664719517773
  0.7913169041433284  0.5823608878033331  0.4427664719517773
  0.9163169041433284  0.5823608878033331  0.4427664719517773
  0.0413169041433284  0.7073608878033331  0.4427664719517773
  0.1663169041433284  0.7073608878033331  0.4427664719517773
  0.2913169041433284  0.7073608878033331  0.4427664719517773
  0.4163169041433284  0.7073608878033331  0.4427664719517773
  0.5413169041433284  0.7073608878033331  0.4427664719517773
  0.6663169041433284  0.7073608878033331  0.4427664719517773
  0.7913169041433284  0.7073608878033331  0.4427664719517773
  0.9163169041433284  0.7073608878033331  0.4427664719517773
  0.0413169041433284  0.8323608878033331  0.4427664719517773
  0.1663169041433284  0.8323608878033331  0.4427664719517773
  0.2913169041433284  0.8323608878033331  0.4427664719517773
  0.4163169041433284  0.8323608878033331  0.4427664719517773
  0.5413169041433284  0.8323608878033331  0.4427664719517773
  0.6663169041433284  0.8323608878033331  0.4427664719517773
  0.7913169041433284  0.8323608878033331  0.4427664719517773
  0.9163169041433284  0.8323608878033331  0.4427664719517773
  0.0413169041433284  0.9573608878033331  0.4427664719517773
  0.1663169041433284  0.9573608878033331  0.4427664719517773
  0.2913169041433284  0.9573608878033331  0.4427664719517773
  0.4163169041433284  0.9573608878033331  0.4427664719517773
  0.5413169041433284  0.9573608878033331  0.4427664719517773
  0.6663169041433284  0.9573608878033331  0.4427664719517773
  0.7913169041433284  0.9573608878033331  0.4427664719517773
  0.9163169041433284  0.9573608878033331  0.4427664719517773
  0.0829809492256718  0.0406920541032234  0.6186777930028632
  0.2079809492256718  0.0406920541032234  0.6186777930028632
  0.3329809492256718  0.0406920541032234  0.6186777930028632
  0.4579809492256718  0.0406920541032234  0.6186777930028632
  0.5829809492256718  0.0406920541032234  0.6186777930028632
  0.7079809492256718  0.0406920541032234  0.6186777930028632
  0.8329809492256718  0.0406920541032234  0.6186777930028632
  0.9579809492256718  0.0406920541032234  0.6186777930028632
  0.0829809492256718  0.1656920541032234  0.6186777930028632
  0.2079809492256718  0.1656920541032234  0.6186777930028632
  0.3329809492256718  0.1656920541032234  0.6186777930028632
  0.4579809492256718  0.1656920541032234  0.6186777930028632
  0.5829809492256718  0.1656920541032234  0.6186777930028632
  0.7079809492256718  0.1656920541032234  0.6186777930028632
  0.8329809492256718  0.1656920541032234  0.6186777930028632
  0.9579809492256718  0.1656920541032234  0.6186777930028632
  0.0829809492256718  0.2906920541032234  0.6186777930028632
  0.2079809492256718  0.2906920541032234  0.6186777930028632
  0.3329809492256718  0.2906920541032234  0.6186777930028632
  0.4579809492256718  0.2906920541032234  0.6186777930028632
  0.5829809492256718  0.2906920541032234  0.6186777930028632
  0.7079809492256718  0.2906920541032234  0.6186777930028632
  0.8329809492256718  0.2906920541032234  0.6186777930028632
  0.9579809492256718  0.2906920541032234  0.6186777930028632
  0.0829809492256718  0.4156920541032234  0.6186777930028632
  0.2079809492256718  0.4156920541032234  0.6186777930028632
  0.3329809492256718  0.4156920541032234  0.6186777930028632
  0.4579809492256718  0.4156920541032234  0.6186777930028632
  0.5829809492256718  0.4156920541032234  0.6186777930028632
  0.7079809492256718  0.4156920541032234  0.6186777930028632
  0.8329809492256718  0.4156920541032234  0.6186777930028632
  0.9579809492256718  0.4156920541032234  0.6186777930028632
  0.0829809492256718  0.5406920541032234  0.6186777930028632
  0.2079809492256718  0.5406920541032234  0.6186777930028632
  0.3329809492256718  0.5406920541032234  0.6186777930028632
  0.4579809492256718  0.5406920541032234  0.6186777930028632
  0.5829809492256718  0.5406920541032234  0.6186777930028632
  0.7079809492256718  0.5406920541032234  0.6186777930028632
  0.8329809492256718  0.5406920541032234  0.6186777930028632
  0.9579809492256718  0.5406920541032234  0.6186777930028632
  0.0829809492256718  0.6656920541032234  0.6186777930028632
  0.2079809492256718  0.6656920541032234  0.6186777930028632
  0.3329809492256718  0.6656920541032234  0.6186777930028632
  0.4579809492256718  0.6656920541032234  0.6186777930028632
  0.5829809492256718  0.6656920541032234  0.6186777930028632
  0.7079809492256718  0.6656920541032234  0.6186777930028632
  0.8329809492256718  0.6656920541032234  0.6186777930028632
  0.9579809492256718  0.6656920541032234  0.6186777930028632
  0.0829809492256718  0.7906920541032234  0.6186777930028632
  0.2079809492256718  0.7906920541032234  0.6186777930028632
  0.3329809492256718  0.7906920541032234  0.6186777930028632
  0.4579809492256718  0.7906920541032234  0.6186777930028632
  0.5829809492256718  0.7906920541032234  0.6186777930028632
  0.7079809492256718  0.7906920541032234  0.6186777930028632
  0.8329809492256718  0.7906920541032234  0.6186777930028632
  0.9579809492256718  0.7906920541032234  0.6186777930028632
  0.0829809492256718  0.9156920541032234  0.6186777930028632
  0.2079809492256718  0.9156920541032234  0.6186777930028632
  0.3329809492256718  0.9156920541032234  0.6186777930028632
  0.4579809492256718  0.9156920541032234  0.6186777930028632
  0.5829809492256718  0.9156920541032234  0.6186777930028632
  0.7079809492256718  0.9156920541032234  0.6186777930028632
  0.8329809492256718  0.9156920541032234  0.6186777930028632
  0.9579809492256718  0.9156920541032234  0.6186777930028632
